2455
Lattice="3.055786971e-09 0 0 0 3.055786971e-09 0 0 0 3.055786971e-09" Properties=species:S:1:pos:R:3
t0 -4.733869713e-10 -8.886869713e-10 1.023800000e-09
t1 -4.487335578e-10 -7.835965663e-10 1.075455795e-09
t1 -4.826040952e-10 -8.604572676e-10 9.087960999e-10
t1 -3.645556685e-10 -9.362130521e-10 1.042060801e-09
t2 -5.622869713e-10 -9.905869713e-10 1.077400000e-09
t3 -5.093827567e-10 -1.097109917e-09 1.088400135e-09
t4 -6.828869713e-10 -9.999869713e-10 9.852000000e-10
t5 -7.167869713e-10 -8.955869713e-10 9.289000000e-10
t2 -6.132869713e-10 -9.528869713e-10 1.216700000e-09
t6 -6.904302860e-10 -8.629985352e-10 1.216718872e-09
t6 -6.640572283e-10 -1.042704040e-09 1.276935584e-09
t4 -5.032869713e-10 -9.031869713e-10 1.307000000e-09
t4 -4.728869713e-10 -7.687869713e-10 1.327500000e-09
t7 -5.339415751e-10 -6.677174205e-10 1.315035245e-09
t4 -4.266869713e-10 -9.993869713e-10 1.373600000e-09
t7 -4.417213628e-10 -1.117190397e-09 1.379824237e-09
t4 -3.687869713e-10 -7.315869713e-10 1.413500000e-09
t7 -3.314361882e-10 -6.208563625e-10 1.435110489e-09
t4 -3.232869713e-10 -9.686869713e-10 1.457700000e-09
t7 -2.559796805e-10 -1.047506775e-09 1.515822624e-09
t4 -2.980869713e-10 -8.326869713e-10 1.475200000e-09
t8 -1.909869713e-10 -7.937869713e-10 -1.497586971e-09
t9 -2.217977275e-10 -7.944202774e-10 -1.383377350e-09
t0 -7.489869713e-10 -1.112786971e-09 9.704000000e-10
t1 -7.168053969e-10 -1.210975610e-09 1.029540167e-09
t2 -8.756869713e-10 -1.117686971e-09 9.017000000e-10
t10 -8.751434464e-10 -1.039619304e-09 8.125783894e-10
t4 -9.890869713e-10 -1.103886971e-09 1.002100000e-09
t5 -9.890869713e-10 -1.160086971e-09 1.108700000e-09
t2 -8.909869713e-10 -1.244386971e-09 8.208000000e-10
t6 -8.773424787e-10 -1.341304701e-09 8.899318307e-10
t6 -1.000369945e-09 -1.271253810e-09 7.808037547e-10
t4 -8.004869713e-10 -1.259786971e-09 7.031000000e-10
t4 -6.859869713e-10 -1.336986971e-09 7.095000000e-10
t7 -6.690566891e-10 -1.427130796e-09 7.852918191e-10
t4 -8.286869713e-10 -1.200186971e-09 5.816000000e-10
t7 -9.398320072e-10 -1.202415825e-09 5.407165707e-10
t4 -6.037869713e-10 -1.351886971e-09 5.991000000e-10
t7 -5.318073178e-10 -1.446451025e-09 5.936014279e-10
t4 -7.477869713e-10 -1.218086971e-09 4.709000000e-10
t7 -7.840461568e-10 -1.200804102e-09 3.589164990e-10
t4 -6.328869713e-10 -1.291086971e-09 4.778000000e-10
t8 -5.580869713e-10 -1.307986971e-09 3.665000000e-10
t9 -4.498184753e-10 -1.262167320e-09 3.799360652e-10
t0 -1.089286971e-09 -1.025186971e-09 9.626000000e-10
t1 -1.090495575e-09 -9.511516535e-10 8.717030477e-10
t2 -1.208086971e-09 -1.001886971e-09 1.043200000e-09
t10 -1.174623380e-09 -9.704107133e-10 1.152826755e-09
t4 -1.302386971e-09 -1.122886971e-09 1.039800000e-09
t5 -1.326386971e-09 -1.175386971e-09 9.311000000e-10
t2 -1.277886971e-09 -8.779869713e-10 9.904000000e-10
t6 -1.319768701e-09 -8.863473001e-10 8.799359662e-10
t6 -1.223632254e-09 -7.718957016e-10 9.956627113e-10
t4 -1.394586971e-09 -8.363869713e-10 1.072300000e-09
t5 -1.502786971e-09 -8.946869713e-10 1.065000000e-09
t5 -1.370386971e-09 -7.360869713e-10 1.151200000e-09
t0 -1.353186971e-09 -1.166886971e-09 1.152600000e-09
t2 -1.433486971e-09 -1.289786971e-09 1.153700000e-09
t10 -1.379212431e-09 -1.382653658e-09 1.101827042e-09
t4 1.485200000e-09 -1.276986971e-09 1.090700000e-09
t5 1.426000000e-09 -1.380186971e-09 1.057800000e-09
t2 -1.445686971e-09 -1.323886971e-09 1.304700000e-09
t6 -1.362941261e-09 -1.403891951e-09 1.337700473e-09
t6 1.511335094e-09 -1.381435960e-09 1.340372123e-09
t2 -1.431186971e-09 -1.191886971e-09 1.368600000e-09
t6 -1.382756107e-09 -1.212915541e-09 1.476371476e-09
t6 1.523905757e-09 -1.140641109e-09 1.408370716e-09
t2 -1.331486971e-09 -1.115086971e-09 1.288900000e-09
t10 -1.222926851e-09 -1.148834713e-09 1.326186868e-09
t10 -1.345992118e-09 -1.003766410e-09 1.329680029e-09
t0 1.433100000e-09 -1.154586971e-09 1.080100000e-09
t1 1.451153712e-09 -1.085383479e-09 1.174599900e-09
t2 1.304000000e-09 -1.126886971e-09 1.021200000e-09
t10 1.237184262e-09 -1.225837770e-09 1.021706625e-09
t4 1.313200000e-09 -1.096586971e-09 8.736000000e-10
t5 1.225800000e-09 -1.140786971e-09 7.953000000e-10
t2 1.228600000e-09 -1.013686971e-09 1.096400000e-09
t6 1.279776534e-09 -9.096307315e-10 1.125197886e-09
t6 1.139719799e-09 -9.772644501e-10 1.024963685e-09
t2 1.164500000e-09 -1.057586971e-09 1.224100000e-09
t6 1.106531321e-09 -9.636754228e-10 1.271048971e-09
t6 1.227136823e-09 -1.098276970e-09 1.317348764e-09
t4 1.049500000e-09 -1.154586971e-09 1.216700000e-09
t5 1.027800000e-09 -1.233686971e-09 1.312700000e-09
t5 9.752000000e-10 -1.149086971e-09 1.116700000e-09
t0 1.413700000e-09 -1.020686971e-09 8.314000000e-10
t1 1.467450412e-09 -9.471146674e-10 9.057784800e-10
t2 1.420000000e-09 -9.751869713e-10 6.941000000e-10
t10 1.322814932e-09 -9.989142290e-10 6.287401444e-10
t4 1.525500000e-09 -1.048586971e-09 6.135000000e-10
t5 1.524000000e-09 -1.042486971e-09 4.900000000e-10
t2 1.451100000e-09 -8.267869713e-10 6.824000000e-10
t10 1.435018867e-09 -7.902380849e-10 5.698764651e-10
t8 -1.475586971e-09 -8.023869713e-10 7.368000000e-10
t9 -1.459820427e-09 -6.860556692e-10 7.538324884e-10
t2 1.353600000e-09 -7.405869713e-10 7.626000000e-10
t6 1.239190906e-09 -7.664581097e-10 7.372376229e-10
t6 1.357201120e-09 -6.276877894e-10 7.218182160e-10
t6 1.352120609e-09 -7.171076163e-10 8.799741442e-10
t0 -1.434186971e-09 -1.117286971e-09 6.751000000e-10
t1 -1.493109410e-09 -1.211763296e-09 7.172665120e-10
t2 -1.330186971e-09 -1.188186971e-09 6.039000000e-10
t10 -1.275332632e-09 -1.274210939e-09 6.663989425e-10
t10 -1.371191453e-09 -1.250310740e-09 5.099522395e-10
t4 -1.229886971e-09 -1.100186971e-09 5.361000000e-10
t5 -1.154286971e-09 -1.146686971e-09 4.506000000e-10
t0 -1.219586971e-09 -9.753869713e-10 5.695000000e-10
t1 -1.274469155e-09 -9.363381187e-10 6.664079378e-10
t2 -1.131586971e-09 -8.797869713e-10 5.125000000e-10
t10 -1.087112831e-09 -9.221675198e-10 4.101290840e-10
t4 -1.013886971e-09 -8.531869713e-10 6.074000000e-10
t5 -1.024086971e-09 -8.685869713e-10 7.313000000e-10
t2 -1.200486971e-09 -7.484869713e-10 4.762000000e-10
t10 -1.126283549e-09 -6.659343071e-10 4.321634694e-10
t8 -1.265286971e-09 -6.955869713e-10 5.922000000e-10
t9 -1.255537783e-09 -5.772934550e-10 5.940661135e-10
t2 -1.305986971e-09 -7.686869713e-10 3.686000000e-10
t6 -1.422483443e-09 -7.583193468e-10 3.932675766e-10
t6 -1.296617140e-09 -6.773513022e-10 2.911233153e-10
t6 -1.301428034e-09 -8.597498045e-10 2.909063450e-10
t0 -9.040869713e-10 -8.139869713e-10 5.517000000e-10
t1 -8.980542271e-10 -7.834865171e-10 4.367787288e-10
t2 -7.795869713e-10 -7.877869713e-10 6.241000000e-10
t10 -7.596935905e-10 -8.870014160e-10 6.858450754e-10
t4 -7.870869713e-10 -6.497869713e-10 6.869000000e-10
t5 -8.236869713e-10 -5.526869713e-10 6.185000000e-10
t2 -6.633869713e-10 -7.953869713e-10 5.307000000e-10
t6 -6.524114539e-10 -8.855138413e-10 4.529365452e-10
t6 -6.610409157e-10 -7.043264040e-10 4.530133019e-10
t4 -5.290869713e-10 -7.812869713e-10 5.969000000e-10
t4 -4.533869713e-10 -6.710869713e-10 6.060000000e-10
t11 -4.490698634e-10 -5.720007235e-10 5.403659363e-10
t4 -4.582869713e-10 -8.856869713e-10 6.641000000e-10
t0 -3.377869713e-10 -6.986869713e-10 6.750000000e-10
t1 -2.470920362e-10 -6.224466183e-10 6.841010441e-10
t4 -3.379869713e-10 -8.312869713e-10 7.100000000e-10
t4 -4.810869713e-10 -1.021086971e-09 6.894000000e-10
t7 -5.329739206e-10 -1.075657236e-09 5.982009393e-10
t4 -2.432869713e-10 -9.065869713e-10 7.781000000e-10
t7 -1.320535545e-10 -8.658532351e-10 7.885759358e-10
t4 -3.881869713e-10 -1.096486971e-09 7.572000000e-10
t7 -3.789522035e-10 -1.214692262e-09 7.648333735e-10
t4 -2.692869713e-10 -1.038186971e-09 8.026000000e-10
t7 -1.761964226e-10 -1.104674512e-09 8.353443054e-10
t0 -7.504869713e-10 -6.369869713e-10 8.139000000e-10
t1 -6.588981067e-10 -7.061255337e-10 8.412697828e-10
t2 -7.422869713e-10 -5.090869713e-10 8.794000000e-10
t10 -7.240676482e-10 -4.180823754e-10 8.041797247e-10
t4 -6.171869713e-10 -4.967869713e-10 9.646000000e-10
t5 -5.972869713e-10 -3.807869713e-10 1.007000000e-09
t2 -8.695869713e-10 -4.804869713e-10 9.636000000e-10
t6 -8.696838996e-10 -3.671184675e-10 1.003379448e-09
t6 -9.684201330e-10 -4.745800617e-10 8.961813551e-10
t4 -8.803869713e-10 -5.697869713e-10 1.082100000e-09
t4 -8.358869713e-10 -5.349869713e-10 1.210000000e-09
t7 -8.173547513e-10 -4.215402730e-10 1.240746907e-09
t4 -9.354869713e-10 -6.971869713e-10 1.071600000e-09
t7 -1.009721779e-09 -7.000081750e-10 9.795551736e-10
t4 -8.453869713e-10 -6.172869713e-10 1.318200000e-09
t7 -8.460728464e-10 -5.590821553e-10 1.422030697e-09
t4 -9.439869713e-10 -7.810869713e-10 1.180400000e-09
t7 -9.666927632e-10 -8.960181503e-10 1.197256656e-09
t4 -8.994869713e-10 -7.432869713e-10 1.305000000e-09
t8 -9.058869713e-10 -8.242869713e-10 1.412800000e-09
t9 -8.448113012e-10 -7.804657182e-10 1.504274558e-09
t5 -5.473869713e-10 -5.970869713e-10 9.884000000e-10
t12 -5.050137486e-10 1.147808739e-09 -6.089224739e-10
t13 -5.797137486e-10 1.116908739e-09 -5.576224739e-10
t13 -5.418137486e-10 1.214108739e-09 -6.673224739e-10
t12 1.118373223e-09 2.931217679e-10 -1.329355026e-10
t13 1.047873223e-09 2.374217679e-10 -9.993550257e-11
t13 1.120873223e-09 3.670217679e-10 -7.213550257e-11
t12 -5.213137486e-10 7.364087393e-10 -1.428522474e-09
t13 -5.373137486e-10 6.515087393e-10 -1.469722474e-09
t13 -4.703137486e-10 7.853087393e-10 -1.493122474e-09
t12 1.093073223e-09 -5.632782321e-10 -1.455022474e-09
t13 1.060373223e-09 -4.977782321e-10 -1.393222474e-09
t13 1.187273223e-09 -5.469782321e-10 -1.459522474e-09
t12 1.009873223e-09 1.318408739e-09 3.238644974e-10
t13 9.633732227e-10 1.238708739e-09 2.985644974e-10
t13 1.012273223e-09 1.371108739e-09 2.439644974e-10
t12 4.855732227e-10 -1.026978232e-09 3.073644974e-10
t13 4.032732227e-10 -9.949782321e-10 2.701644974e-10
t13 5.128732227e-10 -1.097078232e-09 2.482644974e-10
t12 -1.511213749e-09 -1.299478232e-09 2.416449743e-11
t13 1.486173223e-09 -1.254478232e-09 8.516449743e-11
t13 -1.465913749e-09 -1.364578232e-09 7.776449743e-11
t12 -4.258137486e-10 -1.483878232e-09 8.736449743e-11
t13 -4.347137486e-10 -1.460478232e-09 -5.035502572e-12
t13 -3.599137486e-10 -1.423178232e-09 1.211644974e-10
t12 9.834732227e-10 -1.065678232e-09 3.487644974e-10
t13 9.984732227e-10 -1.062578232e-09 4.432644974e-10
t13 8.973732227e-10 -1.025678232e-09 3.367644974e-10
t12 2.969862514e-10 -5.382782321e-10 9.739644974e-10
t13 3.309862514e-10 -4.809782321e-10 1.042764497e-09
t13 3.559862514e-10 -5.244782321e-10 8.998644974e-10
t12 6.752732227e-10 1.337808739e-09 -7.173224739e-10
t13 7.493732227e-10 1.379008739e-09 -6.727224739e-10
t13 7.082732227e-10 1.317508739e-09 -8.048224739e-10
t12 -1.340713749e-09 1.209217679e-10 8.735644974e-10
t13 -1.247413749e-09 1.017217679e-10 8.646644974e-10
t13 -1.381413749e-09 7.782176793e-11 7.984644974e-10
t12 1.698862514e-10 1.177808739e-09 8.664497428e-12
t13 7.588625142e-11 1.189808739e-09 -4.935502572e-12
t13 1.877862514e-10 1.089408739e-09 -2.323550257e-11
t12 -7.975137486e-10 -2.983782321e-10 -4.781355026e-10
t13 -8.629137486e-10 -2.293782321e-10 -4.895355026e-10
t13 -8.059137486e-10 -3.525782321e-10 -5.565355026e-10
t12 -7.906137486e-10 1.107208739e-09 -1.097422474e-09
t13 -8.223137486e-10 1.072908739e-09 -1.013922474e-09
t13 -7.966137486e-10 1.033108739e-09 -1.157722474e-09
t12 2.461862514e-10 -1.440378232e-09 1.031064497e-09
t13 1.522862514e-10 -1.434278232e-09 1.013664497e-09
t13 2.518862514e-10 -1.474678232e-09 1.120264497e-09
t12 6.608732227e-10 -3.572782321e-10 -1.616355026e-10
t13 7.401732227e-10 -3.036782321e-10 -1.615355026e-10
t13 6.892732227e-10 -4.422782321e-10 -1.280355026e-10
t12 1.387473223e-09 -3.397823207e-11 -5.834224739e-10
t13 1.326773223e-09 2.512176793e-11 -6.279224739e-10
t13 1.474273223e-09 4.217679346e-13 -6.045224739e-10
t12 -1.280813749e-09 -9.664782321e-10 -4.927355026e-10
t13 -1.343713749e-09 -1.036578232e-09 -4.756355026e-10
t13 -1.326013749e-09 -9.079782321e-10 -5.535355026e-10
t12 8.651732227e-10 4.443217679e-10 -9.786224739e-10
t13 9.117732227e-10 3.766217679e-10 -1.027722474e-09
t13 8.003732227e-10 4.784217679e-10 -1.040322474e-09
t12 -1.457813749e-09 -1.224782321e-10 3.080644974e-10
t13 -1.464813749e-09 -4.607823207e-11 2.509644974e-10
t13 -1.426213749e-09 -1.924782321e-10 2.508644974e-10
t12 -1.180713749e-09 1.706217679e-10 -3.571355026e-10
t13 -1.118313749e-09 1.700217679e-10 -4.297355026e-10
t13 -1.136613749e-09 1.221217679e-10 -2.873355026e-10
t12 5.808732227e-10 1.408308739e-09 -3.243550257e-11
t13 6.132732227e-10 1.329508739e-09 -7.593550257e-11
t13 6.594732227e-10 1.450908739e-09 1.864497428e-12
t12 8.597732227e-10 7.910087393e-10 1.117564497e-09
t13 7.666732227e-10 8.047087393e-10 1.100164497e-09
t13 8.987732227e-10 7.786087393e-10 1.031064497e-09
t12 -9.360137486e-10 -9.961782321e-10 -7.635224739e-10
t13 -8.518137486e-10 -1.035978232e-09 -7.414224739e-10
t13 -9.197137486e-10 -9.496782321e-10 -8.456224739e-10
t12 1.523873223e-09 8.396087393e-10 1.268364497e-09
t13 1.497673223e-09 9.317087393e-10 1.267664497e-09
t13 -1.464613749e-09 8.343087393e-10 1.336164497e-09
t12 -1.118313749e-09 6.895087393e-10 3.409644974e-10
t13 -1.157313749e-09 7.643087393e-10 2.957644974e-10
t13 -1.124813749e-09 6.175087393e-10 2.782644974e-10
t12 1.109473223e-09 2.583217679e-10 4.295644974e-10
t13 1.131173223e-09 3.466217679e-10 4.593644974e-10
t13 1.123673223e-09 2.607217679e-10 3.349644974e-10
t12 -1.406113749e-09 -1.526678232e-09 -9.060224739e-10
t13 -1.446213749e-09 -1.451578232e-09 -9.496224739e-10
t13 -1.335213749e-09 -1.489078232e-09 -8.538224739e-10
t12 2.196862514e-10 -8.771782321e-10 2.180644974e-10
t13 2.110862514e-10 -8.193782321e-10 1.422644974e-10
t13 1.849862514e-10 -8.261782321e-10 2.912644974e-10
t12 1.257373223e-09 1.259908739e-09 -1.960355026e-10
t13 1.323773223e-09 1.312108739e-09 -2.410355026e-10
t13 1.220773223e-09 1.319208739e-09 -1.303355026e-10
t12 -1.953137486e-10 -1.493178232e-09 1.190264497e-09
t13 -1.617137486e-10 1.473308739e-09 1.183264497e-09
t13 -2.047137486e-10 -1.478378232e-09 1.284364497e-09
t12 1.201373223e-09 -1.057278232e-09 1.629644974e-10
t13 1.137873223e-09 -1.083378232e-09 2.296644974e-10
t13 1.258473223e-09 -1.133478232e-09 1.530644974e-10
t12 1.330573223e-09 9.022087393e-10 6.838644974e-10
t13 1.348573223e-09 9.478087393e-10 6.016644974e-10
t13 1.399273223e-09 9.321087393e-10 7.435644974e-10
t12 -3.883137486e-10 9.820087393e-10 -2.798355026e-10
t13 -4.656137486e-10 9.790087393e-10 -3.362355026e-10
t13 -3.540137486e-10 1.070708739e-09 -2.909355026e-10
t12 1.142773223e-09 1.441808739e-09 -6.168224739e-10
t13 1.157973223e-09 1.495708739e-09 -5.392224739e-10
t13 1.228473223e-09 1.435608739e-09 -6.589224739e-10
t12 1.462973223e-09 1.541217679e-10 -9.225224739e-10
t13 1.462173223e-09 1.940217679e-10 -1.009522474e-09
t13 1.383573223e-09 1.870217679e-10 -8.803224739e-10
t12 -1.514613749e-09 1.954217679e-10 -3.904355026e-10
t13 -1.508713749e-09 2.904217679e-10 -3.802355026e-10
t13 -1.469913749e-09 1.602217679e-10 -3.135355026e-10
t12 8.906732227e-10 9.826087393e-10 6.884644974e-10
t13 8.053732227e-10 1.016508739e-09 6.610644974e-10
t13 9.450732227e-10 1.060608739e-09 6.991644974e-10
t12 -1.319113749e-09 -1.202378232e-09 -8.962224739e-10
t13 -1.276413749e-09 -1.229578232e-09 -9.775224739e-10
t13 -1.247613749e-09 -1.193878232e-09 -8.332224739e-10
t12 -1.497213749e-09 -3.525782321e-10 7.517644974e-10
t13 -1.499313749e-09 -2.756782321e-10 6.946644974e-10
t13 -1.405113749e-09 -3.784782321e-10 7.536644974e-10
t12 -1.076713749e-09 1.071708739e-09 -1.281222474e-09
t13 -1.021513749e-09 1.135808739e-09 -1.326022474e-09
t13 -1.107113749e-09 1.013408739e-09 -1.350722474e-09
t12 9.136732227e-10 -1.026278232e-09 5.916449743e-11
t13 9.462732227e-10 -1.106178232e-09 1.006644974e-10
t13 8.615732227e-10 -9.834782321e-10 1.270644974e-10
t12 -1.439613749e-09 1.114608739e-09 1.296864497e-09
t13 -1.352713749e-09 1.153208739e-09 1.286164497e-09
t13 -1.457213749e-09 1.120708739e-09 1.390764497e-09
t12 7.219732227e-10 -6.217823207e-11 -4.693550257e-11
t13 6.779732227e-10 -1.211782321e-10 1.426449743e-11
t13 8.010732227e-10 -1.092782321e-10 -7.313550257e-11
t12 1.361073223e-09 1.221308739e-09 8.097644974e-10
t13 1.268773223e-09 1.203608739e-09 8.278644974e-10
t13 1.376473223e-09 1.182508739e-09 7.236644974e-10
t12 -1.361113749e-09 1.095708739e-09 7.572644974e-10
t13 -1.278213749e-09 1.049108739e-09 7.460644974e-10
t13 -1.396813749e-09 1.061608739e-09 8.393644974e-10
t12 -1.506013749e-09 1.486708739e-09 3.887644974e-10
t13 -1.499713749e-09 1.415808739e-09 4.528644974e-10
t13 1.489273223e-09 -1.506378232e-09 4.281644974e-10
t12 1.159673223e-09 4.469217679e-10 -3.782355026e-10
t13 1.090073223e-09 3.944217679e-10 -4.177355026e-10
t13 1.150673223e-09 4.317217679e-10 -2.841355026e-10
t12 -1.064813749e-09 -5.735782321e-10 -9.133550257e-11
t13 -1.047113749e-09 -5.739782321e-10 -1.853355026e-10
t13 -1.009013749e-09 -6.429782321e-10 -5.613550257e-11
t12 1.022673223e-09 7.095087393e-10 -9.993550257e-11
t13 1.107573223e-09 6.686087393e-10 -1.168355026e-10
t13 1.038073223e-09 8.030087393e-10 -1.131355026e-10
t12 1.363173223e-09 1.493608739e-09 1.101644974e-10
t13 1.412073223e-09 1.467008739e-09 1.880644974e-10
t13 1.423873223e-09 -1.506078232e-09 6.186449743e-11
t12 1.329273223e-09 -1.426178232e-09 4.516644974e-10
t13 1.352873223e-09 -1.402178232e-09 5.412644974e-10
t13 1.235973223e-09 -1.447278232e-09 4.562644974e-10
t12 1.288273223e-09 -1.257782321e-10 2.646449743e-11
t13 1.338373223e-09 -1.639782321e-10 9.856449743e-11
t13 1.352473223e-09 -1.132782321e-10 -4.343550257e-11
t12 -1.414713749e-09 9.242087393e-10 1.186644974e-10
t13 -1.375513749e-09 9.722087393e-10 1.916644974e-10
t13 -1.351213749e-09 8.555087393e-10 9.816449743e-11
t12 6.983732227e-10 -1.402178232e-09 1.047664497e-09
t13 6.417732227e-10 -1.354978232e-09 9.865644974e-10
t13 6.377732227e-10 -1.447478232e-09 1.106364497e-09
t12 8.012732227e-10 1.214408739e-09 1.308364497e-09
t13 8.755732227e-10 1.160908739e-09 1.280564497e-09
t13 7.261732227e-10 1.176908739e-09 1.262264497e-09
t12 1.148473223e-09 1.170208739e-09 5.307644974e-10
t13 1.086973223e-09 1.228008739e-09 4.855644974e-10
t13 1.186073223e-09 1.116108739e-09 4.613644974e-10
t12 8.709732227e-10 1.053008739e-09 3.148644974e-10
t13 8.038732227e-10 9.892087393e-10 3.388644974e-10
t13 8.971732227e-10 1.028208739e-09 2.262644974e-10
t12 -1.372213749e-09 8.957087393e-10 -2.816355026e-10
t13 -1.409013749e-09 9.327087393e-10 -3.618355026e-10
t13 -1.306313749e-09 9.594087393e-10 -2.538355026e-10
t12 -2.659137486e-10 -5.091782321e-10 -1.039722474e-09
t13 -3.393137486e-10 -5.396782321e-10 -9.865224739e-10
t13 -2.263137486e-10 -4.389782321e-10 -9.880224739e-10
t12 -1.273313749e-09 -1.464978232e-09 -2.294355026e-10
t13 -1.225613749e-09 1.516108739e-09 -1.934355026e-10
t13 -1.211713749e-09 -1.391878232e-09 -2.231355026e-10
t12 1.490073223e-09 -1.305778232e-09 -4.987355026e-10
t13 1.518273223e-09 -1.237778232e-09 -5.599355026e-10
t13 1.481373223e-09 -1.260378232e-09 -4.148355026e-10
t12 1.041773223e-09 4.443217679e-10 1.929644974e-10
t13 9.842732227e-10 4.979217679e-10 2.474644974e-10
t13 1.115873223e-09 5.014217679e-10 1.726644974e-10
t12 -1.069913749e-09 1.282708739e-09 3.524644974e-10
t13 -1.071813749e-09 1.282708739e-09 4.481644974e-10
t13 -9.797137486e-10 1.306108739e-09 3.303644974e-10
t12 5.795732227e-10 8.052087393e-10 6.916644974e-10
t13 5.889732227e-10 7.613087393e-10 6.071644974e-10
t13 6.000732227e-10 8.969087393e-10 6.735644974e-10
t12 1.009773223e-09 -1.320878232e-09 -7.667224739e-10
t13 1.090473223e-09 -1.313378232e-09 -7.159224739e-10
t13 9.415732227e-10 -1.336678232e-09 -7.014224739e-10
t12 1.436273223e-09 1.475908739e-09 -2.516355026e-10
t13 1.501973223e-09 1.482008739e-09 -3.209355026e-10
t13 1.481373223e-09 1.506808739e-09 -1.730355026e-10
t12 8.926732227e-10 -8.922782321e-10 -1.289222474e-09
t13 8.783732227e-10 -8.442782321e-10 -1.370822474e-09
t13 9.190732227e-10 -8.251782321e-10 -1.226322474e-09
t12 7.134732227e-10 -7.887782321e-10 8.900644974e-10
t13 7.747732227e-10 -7.237782321e-10 9.242644974e-10
t13 6.464732227e-10 -7.967782321e-10 9.579644974e-10
t12 1.419273223e-09 7.836087393e-10 3.703644974e-10
t13 1.510573223e-09 7.999087393e-10 3.466644974e-10
t13 1.423573223e-09 7.470087393e-10 4.586644974e-10
t12 -1.382213749e-09 -1.495078232e-09 1.581644974e-10
t13 -1.341413749e-09 1.517108739e-09 8.326449743e-11
t13 -1.372013749e-09 1.498808739e-09 2.304644974e-10
t12 -8.087137486e-10 -1.352978232e-09 -8.423224739e-10
t13 -8.398137486e-10 -1.346978232e-09 -9.326224739e-10
t13 -7.139137486e-10 -1.341578232e-09 -8.487224739e-10
t12 8.689732227e-10 1.320608739e-09 -1.492522474e-09
t13 8.595732227e-10 1.293208739e-09 1.471964497e-09
t13 8.679732227e-10 1.416208739e-09 -1.495922474e-09
t12 -9.539137486e-10 1.505208739e-09 -1.410722474e-09
t13 -1.021213749e-09 1.447808739e-09 -1.447322474e-09
t13 -8.954137486e-10 1.446308739e-09 -1.363122474e-09
t12 -9.004137486e-10 7.530087393e-10 1.190964497e-09
t13 -9.192137486e-10 8.380087393e-10 1.230764497e-09
t13 -9.746137486e-10 6.979087393e-10 1.215764497e-09
t12 8.576732227e-10 3.062176793e-11 7.670644974e-10
t13 9.401732227e-10 7.382176793e-11 7.447644974e-10
t13 8.093732227e-10 9.572176793e-11 8.178644974e-10
t12 1.272173223e-09 1.035308739e-09 3.149644974e-10
t13 1.308273223e-09 1.066908739e-09 2.321644974e-10
t13 1.320073223e-09 9.543087393e-10 3.326644974e-10
t12 1.344173223e-09 5.615217679e-10 1.409164497e-09
t13 1.334073223e-09 4.976217679e-10 1.338664497e-09
t13 1.399273223e-09 6.302217679e-10 1.371564497e-09
t12 1.011773223e-09 1.830217679e-10 1.032164497e-09
t13 9.196732227e-10 2.058217679e-10 1.019664497e-09
t13 1.047573223e-09 1.784217679e-10 9.435644974e-10
t12 8.391732227e-10 1.425508739e-09 1.095644974e-10
t13 7.819732227e-10 1.454608739e-09 1.805644974e-10
t13 8.542732227e-10 1.504108739e-09 5.706449743e-11
t12 -5.407137486e-10 1.433708739e-09 1.239064497e-09
t13 -5.848137486e-10 1.465508739e-09 1.317864497e-09
t13 -5.042137486e-10 1.512408739e-09 1.198564497e-09
t12 7.766732227e-10 4.852217679e-10 8.925644974e-10
t13 7.672732227e-10 4.388217679e-10 8.093644974e-10
t13 8.297732227e-10 5.620217679e-10 8.713644974e-10
t12 1.186573223e-09 -8.753782321e-10 -4.901355026e-10
t13 1.235773223e-09 -9.436782321e-10 -4.446355026e-10
t13 1.236973223e-09 -7.953782321e-10 -4.751355026e-10
t12 1.399173223e-09 9.099087393e-10 1.786449743e-11
t13 1.484073223e-09 8.950087393e-10 5.966449743e-11
t13 1.401973223e-09 8.570087393e-10 -6.183550257e-11
t12 -1.393137486e-10 -1.363378232e-09 -1.358622474e-09
t13 -1.932137486e-10 -1.420278232e-09 -1.303722474e-09
t13 -1.990137486e-10 -1.294378232e-09 -1.387722474e-09
t12 -1.334613749e-09 1.229408739e-09 -1.511522474e-09
t13 -1.307113749e-09 1.320808739e-09 -1.518622474e-09
t13 -1.288313749e-09 1.196408739e-09 -1.434522474e-09
t12 -1.234613749e-09 -1.432378232e-09 -6.924224739e-10
t13 -1.161913749e-09 -1.488378232e-09 -6.652224739e-10
t13 -1.198413749e-09 -1.378878232e-09 -7.631224739e-10
t12 -1.133113749e-09 1.333208739e-09 -7.972224739e-10
t13 -1.110613749e-09 1.325708739e-09 -7.045224739e-10
t13 -1.218813749e-09 1.291208739e-09 -8.046224739e-10
t12 2.732862514e-10 8.583087393e-10 8.117644974e-10
t13 2.851862514e-10 8.938087393e-10 8.998644974e-10
t13 3.621862514e-10 8.442087393e-10 7.792644974e-10
t12 -1.099113749e-09 1.407708739e-09 8.107644974e-10
t13 -1.083213749e-09 1.335708739e-09 7.497644974e-10
t13 -1.011813749e-09 1.434308739e-09 8.396644974e-10
t12 -1.239613749e-09 3.404217679e-10 5.742644974e-10
t13 -1.272613749e-09 3.294217679e-10 6.634644974e-10
t13 -1.312513749e-09 3.800217679e-10 5.264644974e-10
t12 5.419732227e-10 -6.530782321e-10 -6.571224739e-10
t13 6.124732227e-10 -6.244782321e-10 -5.991224739e-10
t13 5.866732227e-10 -6.972782321e-10 -7.292224739e-10
t12 6.695732227e-10 -1.090978232e-09 6.054644974e-10
t13 7.186732227e-10 -1.102478232e-09 6.868644974e-10
t13 6.612732227e-10 -9.960782321e-10 5.957644974e-10
t12 8.300732227e-10 -1.337078232e-09 4.728644974e-10
t13 7.577732227e-10 -1.275978232e-09 4.865644974e-10
t13 8.906732227e-10 -1.319078232e-09 5.448644974e-10
t12 6.689732227e-10 8.484087393e-10 4.023644974e-10
t13 6.140732227e-10 9.222087393e-10 3.756644974e-10
t13 6.101732227e-10 7.729087393e-10 4.004644974e-10
t12 7.239732227e-10 -8.252782321e-10 6.133644974e-10
t13 7.194732227e-10 -8.182782321e-10 7.087644974e-10
t13 7.328732227e-10 -7.348782321e-10 5.830644974e-10
t12 -1.062713749e-09 -1.227978232e-09 -7.995224739e-10
t13 -9.790137486e-10 -1.273978232e-09 -7.922224739e-10
t13 -1.042513749e-09 -1.137578232e-09 -7.753224739e-10
t12 1.371473223e-09 -8.411782321e-10 -1.588355026e-10
t13 1.398573223e-09 -8.543782321e-10 -6.793550257e-11
t13 1.412573223e-09 -7.585782321e-10 -1.843355026e-10
t12 1.223973223e-09 7.266087393e-10 8.600644974e-10
t13 1.240673223e-09 8.019087393e-10 8.033644974e-10
t13 1.280473223e-09 7.409087393e-10 9.361644974e-10
t12 -1.400813749e-09 -9.037823207e-11 -1.430355026e-10
t13 -1.476713749e-09 -1.419782321e-10 -1.701355026e-10
t13 -1.326313749e-09 -1.336782321e-10 -1.846355026e-10
t12 8.075732227e-10 3.924217679e-10 6.476449743e-11
t13 7.752732227e-10 4.779217679e-10 3.626449743e-11
t13 8.959732227e-10 4.096217679e-10 9.696449743e-11
t12 6.342732227e-10 -2.211782321e-10 1.239764497e-09
t13 7.061732227e-10 -2.533782321e-10 1.185564497e-09
t13 6.526732227e-10 -1.279782321e-10 1.251264497e-09
t12 -7.347137486e-10 1.456208739e-09 5.066449743e-11
t13 -6.429137486e-10 1.459308739e-09 7.776449743e-11
t13 -7.493137486e-10 1.365008739e-09 2.576449743e-11
t12 1.002273223e-09 -8.264782321e-10 -1.150355026e-10
t13 1.081473223e-09 -8.700782321e-10 -1.464355026e-10
t13 9.837732227e-10 -8.681782321e-10 -3.083550257e-11
t12 -1.070313749e-09 -1.269178232e-09 -1.739355026e-10
t13 -9.883137486e-10 -1.316878232e-09 -1.616355026e-10
t13 -1.087413749e-09 -1.228378232e-09 -8.893550257e-11
t12 1.332173223e-09 -4.612782321e-10 -1.392022474e-09
t13 1.408673223e-09 -4.946782321e-10 -1.439022474e-09
t13 1.356673223e-09 -3.722782321e-10 -1.366522474e-09
t12 1.310773223e-09 -3.926782321e-10 -3.863355026e-10
t13 1.250273223e-09 -4.564782321e-10 -3.485355026e-10
t13 1.299173223e-09 -3.140782321e-10 -3.329355026e-10
t12 -1.289413749e-09 6.779087393e-10 -3.373550257e-11
t13 -1.207713749e-09 6.758087393e-10 1.596449743e-11
t13 -1.262013749e-09 6.725087393e-10 -1.253355026e-10
t12 -1.447713749e-09 1.508608739e-09 -4.644355026e-10
t13 -1.486513749e-09 -1.464078232e-09 -4.916355026e-10
t13 -1.353313749e-09 1.524108739e-09 -4.670355026e-10
t12 -1.228313749e-09 -3.636782321e-10 1.440264497e-09
t13 -1.315613749e-09 -3.822782321e-10 1.474664497e-09
t13 -1.222413749e-09 -4.161782321e-10 1.360364497e-09
t12 -1.160613749e-09 1.124508739e-09 1.273644974e-10
t13 -1.105013749e-09 1.046908739e-09 1.204644974e-10
t13 -1.107013749e-09 1.188408739e-09 1.743644974e-10
t12 -1.159713749e-09 -5.968782321e-10 -7.178224739e-10
t13 -1.131413749e-09 -5.093782321e-10 -7.447224739e-10
t13 -1.107713749e-09 -6.159782321e-10 -6.398224739e-10
t12 1.194773223e-09 -1.109078232e-09 -9.252224739e-10
t13 1.171973223e-09 -1.160778232e-09 -8.479224739e-10
t13 1.264573223e-09 -1.050778232e-09 -8.955224739e-10
t12 -7.532137486e-10 -5.697782321e-10 -6.478224739e-10
t13 -7.164137486e-10 -6.579782321e-10 -6.529224739e-10
t13 -6.840137486e-10 -5.128782321e-10 -6.815224739e-10
t12 8.651732227e-10 6.185087393e-10 3.689644974e-10
t13 9.173732227e-10 6.544087393e-10 4.406644974e-10
t13 7.927732227e-10 6.803087393e-10 3.586644974e-10
t12 7.417732227e-10 -9.055782321e-10 2.532644974e-10
t13 6.819732227e-10 -8.928782321e-10 1.796644974e-10
t13 6.945732227e-10 -9.635782321e-10 3.128644974e-10
t12 2.463862514e-10 1.296708739e-09 9.654644974e-10
t13 2.256862514e-10 1.255508739e-09 8.816644974e-10
t13 1.639862514e-10 1.336608739e-09 9.935644974e-10
t12 6.413732227e-10 8.648087393e-10 9.557644974e-10
t13 6.205732227e-10 8.230087393e-10 8.721644974e-10
t13 6.978732227e-10 9.385087393e-10 9.322644974e-10
t12 -5.984137486e-10 7.407087393e-10 8.931644974e-10
t13 -5.093137486e-10 7.280087393e-10 8.605644974e-10
t13 -6.010137486e-10 8.324087393e-10 9.206644974e-10
t12 -1.338513749e-09 -6.151782321e-10 -7.513550257e-11
t13 -1.351213749e-09 -5.864782321e-10 1.526449743e-11
t13 -1.245213749e-09 -6.015782321e-10 -9.173550257e-11
t12 9.508732227e-10 -7.745782321e-10 -4.218355026e-10
t13 1.041773223e-09 -7.941782321e-10 -3.989355026e-10
t13 9.314732227e-10 -8.331782321e-10 -4.949355026e-10
t12 1.018073223e-09 7.511087393e-10 5.376644974e-10
t13 1.092873223e-09 8.106087393e-10 5.420644974e-10
t13 9.421732227e-10 8.065087393e-10 5.560644974e-10
t12 -8.374137486e-10 1.099308739e-09 -5.128355026e-10
t13 -9.286137486e-10 1.126108739e-09 -5.012355026e-10
t13 -8.140137486e-10 1.057408739e-09 -4.299355026e-10
t12 1.030173223e-09 -1.258678232e-09 -2.336355026e-10
t13 9.481732227e-10 -1.209378232e-09 -2.373355026e-10
t13 1.093973223e-09 -1.196478232e-09 -1.987355026e-10
t12 -1.445813749e-09 -1.240178232e-09 -2.322355026e-10
t13 -1.474213749e-09 -1.237978232e-09 -1.409355026e-10
t13 -1.405413749e-09 -1.326278232e-09 -2.428355026e-10
t12 1.060173223e-09 1.009308739e-09 8.156449743e-11
t13 1.104373223e-09 1.037608739e-09 1.615644974e-10
t13 1.099673223e-09 1.062308739e-09 1.226449743e-11
t12 -8.516137486e-10 -1.367178232e-09 -1.130622474e-09
t13 -9.287137486e-10 -1.413478232e-09 -1.163422474e-09
t13 -7.779137486e-10 -1.408778232e-09 -1.175222474e-09
t12 -5.345137486e-10 -7.525782321e-10 -3.976355026e-10
t13 -4.988137486e-10 -6.651782321e-10 -4.135355026e-10
t13 -5.933137486e-10 -7.412782321e-10 -3.230355026e-10
t12 8.148625142e-11 -1.125578232e-09 1.106764497e-09
t13 1.162862514e-10 -1.184178232e-09 1.173964497e-09
t13 1.328625142e-11 -1.176778232e-09 1.063264497e-09
t12 2.143862514e-10 -1.340778232e-09 4.178644974e-10
t13 2.557862514e-10 -1.316778232e-09 5.007644974e-10
t13 2.563862514e-10 -1.284478232e-09 3.528644974e-10
t12 -1.143913749e-09 2.226217679e-10 3.404644974e-10
t13 -1.150213749e-09 2.482217679e-10 4.325644974e-10
t13 -1.149113749e-09 1.270217679e-10 3.417644974e-10
t12 1.065173223e-09 -1.510178232e-09 4.205644974e-10
t13 9.873732227e-10 -1.454678232e-09 4.148644974e-10
t13 1.041273223e-09 1.465808739e-09 3.733644974e-10
t12 -8.364137486e-10 -1.414678232e-09 -1.122355026e-10
t13 -7.774137486e-10 -1.340278232e-09 -9.973550257e-11
t13 -8.112137486e-10 -1.476978232e-09 -4.413550257e-11
t12 1.011473223e-09 -4.993782321e-10 5.034644974e-10
t13 9.451732227e-10 -4.748782321e-10 5.679644974e-10
t13 9.642732227e-10 -5.529782321e-10 4.397644974e-10
t12 1.475273223e-09 1.105208739e-09 5.622644974e-10
t13 1.466673223e-09 1.172308739e-09 4.944644974e-10
t13 -1.495813749e-09 1.123008739e-09 6.030644974e-10
t12 1.259273223e-09 -8.787823207e-11 7.723644974e-10
t13 1.338373223e-09 -4.087823207e-11 7.459644974e-10
t13 1.187373223e-09 -3.447823207e-11 7.386644974e-10
t12 1.222173223e-09 -1.054178232e-09 -1.175355026e-10
t13 1.290373223e-09 -9.927782321e-10 -1.446355026e-10
t13 1.214573223e-09 -1.041478232e-09 -2.293550257e-11
t12 1.272573223e-09 5.207217679e-10 -7.423550257e-11
t13 1.347973223e-09 5.473217679e-10 -1.269355026e-10
t13 1.288173223e-09 5.603217679e-10 1.146449743e-11
t12 8.257732227e-10 2.913217679e-10 4.490644974e-10
t13 9.192732227e-10 2.705217679e-10 4.492644974e-10
t13 8.219732227e-10 3.844217679e-10 4.272644974e-10
t12 -8.481137486e-10 1.201208739e-09 8.576449743e-11
t13 -7.564137486e-10 1.182708739e-09 6.556449743e-11
t13 -8.970137486e-10 1.162208739e-09 1.336449743e-11
t12 -1.517137486e-10 1.364508739e-09 3.147644974e-10
t13 -1.407137486e-10 1.294608739e-09 2.502644974e-10
t13 -8.391374858e-11 1.428308739e-09 2.927644974e-10
t12 1.386973223e-09 -1.250078232e-09 2.413644974e-10
t13 1.462373223e-09 -1.206478232e-09 2.810644974e-10
t13 1.349773223e-09 -1.302878232e-09 3.119644974e-10
t12 -8.497137486e-10 -1.300978232e-09 -1.494722474e-09
t13 -8.760137486e-10 -1.384578232e-09 -1.456322474e-09
t13 -9.314137486e-10 -1.251978232e-09 -1.504022474e-09
t12 -9.931137486e-10 9.844087393e-10 1.358564497e-09
t13 -9.228137486e-10 1.049408739e-09 1.358264497e-09
t13 -1.014113749e-09 9.722087393e-10 1.451164497e-09
t12 -1.469313749e-09 1.434208739e-09 -1.241322474e-09
t13 -1.441813749e-09 1.370908739e-09 -1.174922474e-09
t13 -1.440713749e-09 1.518808739e-09 -1.206922474e-09
t12 -7.999137486e-10 1.485108739e-09 1.155364497e-09
t13 -8.143137486e-10 -1.489178232e-09 1.203464497e-09
t13 -7.083137486e-10 1.463108739e-09 1.172264497e-09
t12 1.204373223e-09 -1.463778232e-09 -3.560355026e-10
t13 1.291873223e-09 -1.494778232e-09 -3.328355026e-10
t13 1.158973223e-09 -1.454878232e-09 -2.722355026e-10
t12 1.168673223e-09 -1.478878232e-09 -9.531224739e-10
t13 1.129873223e-09 -1.419178232e-09 -8.891224739e-10
t13 1.208873223e-09 -1.421478232e-09 -1.018222474e-09
t12 7.948625142e-11 -1.085278232e-09 1.113644974e-10
t13 -1.251374858e-11 -1.061878232e-09 9.916449743e-11
t13 1.192862514e-10 -1.006878232e-09 1.491644974e-10
t12 9.611732227e-10 -1.450578232e-09 -1.447622474e-09
t13 8.707732227e-10 -1.425878232e-09 -1.428222474e-09
t13 1.010173223e-09 -1.368578232e-09 -1.442122474e-09
t12 -1.063913749e-09 -1.069678232e-09 -1.451122474e-09
t13 -1.140913749e-09 -1.013078232e-09 -1.456722474e-09
t13 -1.059313749e-09 -1.094878232e-09 -1.358922474e-09
t12 9.595732227e-10 1.206608739e-09 -9.223550257e-11
t13 1.015773223e-09 1.280808739e-09 -1.145355026e-10
t13 9.346732227e-10 1.221908739e-09 -1.035502572e-12
t12 -4.838137486e-10 -3.451782321e-10 -1.435722474e-09
t13 -4.808137486e-10 -2.497782321e-10 -1.443122474e-09
t13 -5.121137486e-10 -3.749782321e-10 -1.522122474e-09
t12 -1.013913749e-09 -1.155878232e-09 -1.169322474e-09
t13 -9.386137486e-10 -1.196178232e-09 -1.126122474e-09
t13 -1.083013749e-09 -1.221978232e-09 -1.163722474e-09
t12 -2.751137486e-10 -1.306678232e-09 -2.121355026e-10
t13 -3.643137486e-10 -1.272078232e-09 -2.139355026e-10
t13 -2.226137486e-10 -1.239878232e-09 -2.562355026e-10
t12 1.209973223e-09 1.685217679e-10 -1.230922474e-09
t13 1.274873223e-09 1.887217679e-10 -1.298322474e-09
t13 1.129273223e-09 1.518217679e-10 -1.279622474e-09
t12 -1.136213749e-09 -9.177782321e-10 -1.206522474e-09
t13 -1.070713749e-09 -8.623782321e-10 -1.249022474e-09
t13 -1.085113749e-09 -9.844782321e-10 -1.160722474e-09
t12 -9.279137486e-10 1.050608739e-09 -1.768355026e-10
t13 -9.015137486e-10 9.643087393e-10 -1.449355026e-10
t13 -1.000513749e-09 1.032808739e-09 -2.367355026e-10
t12 -1.419513749e-09 -1.129278232e-09 -1.253922474e-09
t13 -1.354213749e-09 -1.118578232e-09 -1.323122474e-09
t13 -1.451013749e-09 -1.040578232e-09 -1.236722474e-09
t12 1.351973223e-09 1.096408739e-09 1.121664497e-09
t13 1.269773223e-09 1.098108739e-09 1.072664497e-09
t13 1.325073223e-09 1.092508739e-09 1.213464497e-09
t12 1.450473223e-09 -1.445578232e-09 7.135644974e-10
t13 1.506073223e-09 -1.522778232e-09 7.027644974e-10
t13 1.440273223e-09 -1.436478232e-09 8.083644974e-10
t12 -1.481813749e-09 -1.368778232e-09 -1.138722474e-09
t13 -1.456313749e-09 -1.285478232e-09 -1.178522474e-09
t13 1.497373223e-09 -1.396778232e-09 -1.188822474e-09
t12 2.492862514e-10 1.348708739e-09 -3.174355026e-10
t13 2.531862514e-10 1.319308739e-09 -2.264355026e-10
t13 3.201862514e-10 1.301208739e-09 -3.609355026e-10
t12 -1.350613749e-09 1.231108739e-09 -1.016422474e-09
t13 -1.411613749e-09 1.301508739e-09 -9.946224739e-10
t13 -1.404813749e-09 1.164708739e-09 -1.059022474e-09
t12 -4.264137486e-10 -1.495578232e-09 -6.536224739e-10
t13 -3.378137486e-10 1.524208739e-09 -6.589224739e-10
t13 -4.838137486e-10 1.484708739e-09 -6.661224739e-10
t12 -8.501137486e-10 1.201608739e-09 1.288964497e-09
t13 -7.598137486e-10 1.183508739e-09 1.262664497e-09
t13 -8.552137486e-10 1.297108739e-09 1.293264497e-09
t12 -1.044213749e-09 -4.935782321e-10 -1.115422474e-09
t13 -1.075013749e-09 -5.504782321e-10 -1.044922474e-09
t13 -9.488137486e-10 -4.952782321e-10 -1.107722474e-09
t12 7.262732227e-10 -1.146978232e-09 -1.041122474e-09
t13 7.754732227e-10 -1.161778232e-09 -1.121822474e-09
t13 6.951732227e-10 -1.233878232e-09 -1.015622474e-09
t12 -1.165813749e-09 4.896217679e-10 -9.319224739e-10
t13 -1.096513749e-09 5.429217679e-10 -9.710224739e-10
t13 -1.200013749e-09 5.434217679e-10 -8.605224739e-10
t12 9.893732227e-10 -7.227823207e-11 -5.380355026e-10
t13 1.031473223e-09 -4.737823207e-11 -4.557355026e-10
t13 1.060373223e-09 -1.077782321e-10 -5.914355026e-10
t12 7.247732227e-10 -6.074782321e-10 -4.029355026e-10
t13 7.376732227e-10 -5.126782321e-10 -4.000355026e-10
t13 8.092732227e-10 -6.423782321e-10 -4.310355026e-10
t12 9.883732227e-10 1.439008739e-09 1.278964497e-09
t13 1.048273223e-09 1.409408739e-09 1.347564497e-09
t13 9.408732227e-10 1.360108739e-09 1.252964497e-09
t12 1.013073223e-09 1.247908739e-09 -1.284422474e-09
t13 1.008373223e-09 1.152308739e-09 -1.285922474e-09
t13 9.477732227e-10 1.276208739e-09 -1.348322474e-09
t12 7.774732227e-10 -1.156078232e-09 -2.187355026e-10
t13 6.941732227e-10 -1.192878232e-09 -1.890355026e-10
t13 7.681732227e-10 -1.061778232e-09 -2.051355026e-10
t12 -1.425813749e-09 8.503087393e-10 -1.036522474e-09
t13 -1.444313749e-09 8.557087393e-10 -9.428224739e-10
t13 -1.466313749e-09 9.287087393e-10 -1.073622474e-09
t12 7.692732227e-10 -1.473978232e-09 -8.873224739e-10
t13 7.928732227e-10 1.493208739e-09 -9.147224739e-10
t13 8.317732227e-10 -1.452778232e-09 -8.180224739e-10
t12 -6.222137486e-10 1.005208739e-09 9.564644974e-10
t13 -5.730137486e-10 1.071608739e-09 9.081644974e-10
t13 -7.074137486e-10 1.002108739e-09 9.129644974e-10
t12 1.336973223e-09 5.346217679e-10 -1.351622474e-09
t13 1.415473223e-09 5.891217679e-10 -1.346622474e-09
t13 1.338773223e-09 4.979217679e-10 -1.440022474e-09
t12 1.450973223e-09 -7.420782321e-10 -9.784224739e-10
t13 1.483273223e-09 -7.958782321e-10 -1.050822474e-09
t13 1.475473223e-09 -6.526782321e-10 -1.002222474e-09
t12 9.915732227e-10 1.277608739e-09 -8.055224739e-10
t13 1.049273223e-09 1.299908739e-09 -8.785224739e-10
t13 1.044973223e-09 1.292208739e-09 -7.274224739e-10
t12 1.324273223e-09 -1.424278232e-09 -1.261722474e-09
t13 1.258473223e-09 -1.364978232e-09 -1.225422474e-09
t13 1.275673223e-09 -1.503878232e-09 -1.283322474e-09
t12 6.855732227e-10 -1.515478232e-09 7.192644974e-10
t13 6.344732227e-10 -1.453378232e-09 7.710644974e-10
t13 6.203732227e-10 1.482208739e-09 6.802644974e-10
t12 1.433973223e-09 7.978087393e-10 -2.050355026e-10
t13 1.378973223e-09 8.049087393e-10 -2.831355026e-10
t13 1.519373223e-09 8.309087393e-10 -2.328355026e-10
t12 -1.078113749e-09 1.207217679e-10 -9.734224739e-10
t13 -1.151613749e-09 6.542176793e-11 -9.998224739e-10
t13 -1.024813749e-09 1.291217679e-10 -1.052522474e-09
t12 1.137473223e-09 1.335508739e-09 -1.047922474e-09
t13 1.089373223e-09 1.324108739e-09 -1.129822474e-09
t13 1.149373223e-09 1.430108739e-09 -1.040022474e-09
t12 -1.202713749e-09 -1.352278232e-09 -1.102022474e-09
t13 -1.286513749e-09 -1.365678232e-09 -1.146222474e-09
t13 -1.172813749e-09 -1.440478232e-09 -1.080022474e-09
t12 -1.570137486e-10 1.228508739e-09 1.168364497e-09
t13 -2.509137486e-10 1.224508739e-09 1.150164497e-09
t13 -1.156137486e-10 1.195608739e-09 1.088564497e-09
t12 -1.491513749e-09 7.629087393e-10 -1.365622474e-09
t13 -1.454013749e-09 7.510087393e-10 -1.278322474e-09
t13 -1.416513749e-09 7.835087393e-10 -1.421422474e-09
t12 8.593732227e-10 8.250087393e-10 -1.342822474e-09
t13 9.264732227e-10 8.802087393e-10 -1.302522474e-09
t13 7.973732227e-10 8.869087393e-10 -1.381222474e-09
t12 1.202173223e-09 -7.798782321e-10 1.601644974e-10
t13 1.183473223e-09 -8.728782321e-10 1.726644974e-10
t13 1.205273223e-09 -7.437782321e-10 2.487644974e-10
t12 1.376573223e-09 -9.497782321e-10 -8.029224739e-10
t13 1.418873223e-09 -8.732782321e-10 -8.420224739e-10
t13 1.327973223e-09 -9.147782321e-10 -7.282224739e-10
t12 5.994732227e-10 6.841087393e-10 -7.084224739e-10
t13 6.794732227e-10 7.287087393e-10 -6.806224739e-10
t13 5.327732227e-10 7.528087393e-10 -7.092224739e-10
t12 7.258732227e-10 3.613217679e-10 -7.450224739e-10
t13 7.485732227e-10 3.419217679e-10 -8.360224739e-10
t13 7.124732227e-10 4.560217679e-10 -7.433224739e-10
t12 1.304273223e-09 -5.063782321e-10 -7.147224739e-10
t13 1.327973223e-09 -5.577782321e-10 -6.375224739e-10
t13 1.244773223e-09 -4.391782321e-10 -6.815224739e-10
t12 1.503173223e-09 1.072508739e-09 -1.131422474e-09
t13 1.413273223e-09 1.078808739e-09 -1.099122474e-09
t13 1.494173223e-09 1.067908739e-09 -1.226622474e-09
t12 1.237873223e-09 -1.293478232e-09 -6.503224739e-10
t13 1.332673223e-09 -1.280478232e-09 -6.495224739e-10
t13 1.220973223e-09 -1.352078232e-09 -5.765224739e-10
t12 1.163073223e-09 1.446208739e-09 -1.348122474e-09
t13 1.122373223e-09 1.360408739e-09 -1.336322474e-09
t13 1.111773223e-09 1.487808739e-09 -1.417422474e-09
t12 1.017873223e-09 8.701087393e-10 -6.368224739e-10
t13 9.622732227e-10 8.629087393e-10 -5.593224739e-10
t13 9.694732227e-10 8.243087393e-10 -7.055224739e-10
t12 2.595862514e-10 6.120087393e-10 -8.652224739e-10
t13 2.965862514e-10 6.864087393e-10 -8.177224739e-10
t13 3.120862514e-10 6.059087393e-10 -9.450224739e-10
t12 -7.511137486e-10 9.746087393e-10 -1.367022474e-09
t13 -7.479137486e-10 8.832087393e-10 -1.338622474e-09
t13 -7.001137486e-10 9.763087393e-10 -1.448022474e-09
t12 -1.330413749e-09 -9.940782321e-10 -2.221355026e-10
t13 -1.290813749e-09 -9.665782321e-10 -3.047355026e-10
t13 -1.373613749e-09 -1.076978232e-09 -2.426355026e-10
t12 -1.168013749e-09 7.859087393e-10 -1.169222474e-09
t13 -1.103913749e-09 7.766087393e-10 -1.098722474e-09
t13 -1.244713749e-09 8.245087393e-10 -1.126922474e-09
t12 1.240873223e-09 -7.189782321e-10 -1.243022474e-09
t13 1.328873223e-09 -7.274782321e-10 -1.206422474e-09
t13 1.219473223e-09 -6.261782321e-10 -1.232922474e-09
t12 1.143073223e-09 1.422108739e-09 -7.635502572e-12
t13 1.086173223e-09 1.497308739e-09 8.864497428e-12
t13 1.218873223e-09 1.436408739e-09 4.896449743e-11
t12 3.777862514e-10 1.438008739e-09 5.959644974e-10
t13 3.854862514e-10 1.346608739e-09 5.684644974e-10
t13 2.955862514e-10 1.467908739e-09 5.571644974e-10
t12 -5.273137486e-10 -1.470278232e-09 -3.448355026e-10
t13 -4.805137486e-10 1.523208739e-09 -2.893355026e-10
t13 -4.793137486e-10 -1.471178232e-09 -4.277355026e-10
t12 9.114732227e-10 -5.489782321e-10 1.028644974e-10
t13 9.511732227e-10 -4.644782321e-10 1.241644974e-10
t13 9.628732227e-10 -5.816782321e-10 2.906449743e-11
t12 5.097732227e-10 4.790217679e-10 -4.245355026e-10
t13 5.397732227e-10 5.302217679e-10 -4.996355026e-10
t13 5.257732227e-10 3.880217679e-10 -4.495355026e-10
t12 1.112873223e-09 1.078508739e-09 1.000864497e-09
t13 1.064673223e-09 1.133708739e-09 9.393644974e-10
t13 1.050173223e-09 1.060008739e-09 1.070764497e-09
t12 -1.108713749e-09 1.449408739e-09 -1.068722474e-09
t13 -1.180113749e-09 1.386108739e-09 -1.061622474e-09
t13 -1.061613749e-09 1.441908739e-09 -9.857224739e-10
t12 5.836732227e-10 -1.468178232e-09 -1.081422474e-09
t13 6.545732227e-10 -1.480578232e-09 -1.018322474e-09
t13 6.272732227e-10 -1.437478232e-09 -1.160822474e-09
t12 -1.089513749e-09 6.376087393e-10 7.766644974e-10
t13 -1.023013749e-09 5.726087393e-10 7.995644974e-10
t13 -1.075013749e-09 7.095087393e-10 8.380644974e-10
t12 9.334732227e-10 1.022108739e-09 -9.147224739e-10
t13 8.406732227e-10 1.035608739e-09 -9.338224739e-10
t13 9.568732227e-10 1.094508739e-09 -8.567224739e-10
t12 8.787732227e-10 -1.158178232e-09 -1.267522474e-09
t13 8.746732227e-10 -1.063578232e-09 -1.253322474e-09
t13 9.103732227e-10 -1.167478232e-09 -1.357422474e-09
t12 -4.796137486e-10 8.494087393e-10 -1.171422474e-09
t13 -5.143137486e-10 8.331087393e-10 -1.259122474e-09
t13 -4.895137486e-10 7.659087393e-10 -1.125722474e-09
t12 -1.170513749e-09 -1.199782321e-10 4.703644974e-10
t13 -1.151713749e-09 -7.347823207e-11 3.887644974e-10
t13 -1.158213749e-09 -2.123782321e-10 4.486644974e-10
t12 -4.045137486e-10 -6.531782321e-10 -1.221222474e-09
t13 -4.155137486e-10 -7.316782321e-10 -1.167522474e-09
t13 -3.622137486e-10 -5.900782321e-10 -1.163122474e-09
t12 1.393573223e-09 -7.078782321e-10 -4.818355026e-10
t13 1.470073223e-09 -7.453782321e-10 -5.254355026e-10
t13 1.429773223e-09 -6.581782321e-10 -4.084355026e-10
t12 1.386273223e-09 3.484217679e-10 -1.104822474e-09
t13 1.367673223e-09 3.234217679e-10 -1.195322474e-09
t13 1.460973223e-09 4.079217679e-10 -1.111222474e-09
t12 1.143073223e-09 -1.252778232e-09 -1.162622474e-09
t13 1.058973223e-09 -1.220678232e-09 -1.195422474e-09
t13 1.177973223e-09 -1.180178232e-09 -1.111022474e-09
t12 4.386732227e-10 1.502308739e-09 1.490864497e-09
t13 4.102732227e-10 1.422008739e-09 -1.521322474e-09
t13 4.200732227e-10 -1.483978232e-09 -1.501822474e-09
t12 -1.195113749e-09 -3.407782321e-10 -4.411355026e-10
t13 -1.282113749e-09 -3.122782321e-10 -4.690355026e-10
t13 -1.148913749e-09 -3.601782321e-10 -5.226355026e-10
t12 7.776732227e-10 1.340608739e-09 -9.976224739e-10
t13 8.576732227e-10 1.288708739e-09 -9.892224739e-10
t13 7.630732227e-10 1.347008739e-09 -1.092022474e-09
t12 5.210732227e-10 -1.016278232e-09 -6.381224739e-10
t13 5.758732227e-10 -9.398782321e-10 -6.563224739e-10
t13 5.168732227e-10 -1.020578232e-09 -5.426224739e-10
t12 -1.499213749e-09 -1.114878232e-09 -7.136224739e-10
t13 1.492573223e-09 -1.060178232e-09 -7.591224739e-10
t13 -1.443413749e-09 -1.149578232e-09 -7.832224739e-10
t12 2.094862514e-10 7.532087393e-10 1.230964497e-09
t13 2.037862514e-10 6.608087393e-10 1.255364497e-09
t13 2.040862514e-10 8.003087393e-10 1.314164497e-09
t12 5.918625142e-11 -1.243478232e-09 -3.601355026e-10
t13 5.828625142e-11 -1.185978232e-09 -2.835355026e-10
t13 1.295862514e-10 -1.305878232e-09 -3.426355026e-10
t12 -1.050413749e-09 9.526087393e-10 -3.969355026e-10
t13 -9.945137486e-10 8.750087393e-10 -4.007355026e-10
t13 -1.084913749e-09 9.617087393e-10 -4.857355026e-10
t12 5.094732227e-10 9.633087393e-10 -1.206022474e-09
t13 4.775732227e-10 8.756087393e-10 -1.227122474e-09
t13 5.857732227e-10 9.754087393e-10 -1.262622474e-09
t12 -1.042713749e-09 3.302217679e-10 -1.509022474e-09
t13 -1.087713749e-09 2.604217679e-10 1.499164497e-09
t13 -1.104013749e-09 3.556217679e-10 -1.440122474e-09
t12 -1.078013749e-09 1.040408739e-09 -9.905224739e-10
t13 -1.147513749e-09 1.106208739e-09 -9.894224739e-10
t13 -1.054713749e-09 1.031608739e-09 -1.082922474e-09
t12 -8.701137486e-10 5.731217679e-10 -1.336922474e-09
t13 -8.910137486e-10 5.031217679e-10 -1.398722474e-09
t13 -9.030137486e-10 5.414217679e-10 -1.252822474e-09
t12 1.359773223e-09 1.429908739e-09 -7.763224739e-10
t13 1.302173223e-09 1.439208739e-09 -8.522224739e-10
t13 1.440673223e-09 1.474108739e-09 -8.020224739e-10
t12 1.216673223e-09 1.331208739e-09 1.427364497e-09
t13 1.214373223e-09 1.235608739e-09 1.424664497e-09
t13 1.300673223e-09 1.352108739e-09 1.468364497e-09
t12 -9.439137486e-10 5.601217679e-10 2.156449743e-11
t13 -9.588137486e-10 4.866217679e-10 8.116449743e-11
t13 -9.722137486e-10 5.277217679e-10 -6.393550257e-11
t12 1.404973223e-09 2.886217679e-10 -6.135502572e-12
t13 1.315273223e-09 3.104217679e-10 -3.153550257e-11
t13 1.458773223e-09 3.200217679e-10 -7.883550257e-11
t12 -7.909137486e-10 5.053217679e-10 -7.691224739e-10
t13 -8.395137486e-10 4.235217679e-10 -7.794224739e-10
t13 -7.608137486e-10 5.041217679e-10 -6.782224739e-10
t12 5.341732227e-10 1.226908739e-09 4.178644974e-10
t13 4.868732227e-10 1.253608739e-09 3.390644974e-10
t13 6.140732227e-10 1.279608739e-09 4.169644974e-10
t12 -1.518613749e-09 -1.435782321e-10 -1.523722474e-09
t13 -1.515313749e-09 -2.383782321e-10 -1.511422474e-09
t13 1.474073223e-09 -1.307782321e-10 1.461164497e-09
t12 -1.525113749e-09 1.364217679e-10 1.862644974e-10
t13 1.511373223e-09 1.846217679e-10 2.665644974e-10
t13 1.497973223e-09 1.927217679e-10 1.160644974e-10
t12 6.894732227e-10 -5.559782321e-10 5.513644974e-10
t13 7.403732227e-10 -5.012782321e-10 6.111644974e-10
t13 7.274732227e-10 -5.389782321e-10 4.651644974e-10
t12 6.387732227e-10 1.089208739e-09 6.627644974e-10
t13 5.911732227e-10 1.123308739e-09 5.870644974e-10
t13 6.063732227e-10 1.140608739e-09 7.366644974e-10
t12 1.394173223e-09 3.727217679e-10 3.153644974e-10
t13 1.364173223e-09 3.719217679e-10 2.245644974e-10
t13 1.336673223e-09 4.355217679e-10 3.590644974e-10
t12 -1.461013749e-09 -3.954782321e-10 -1.474922474e-09
t13 -1.471713749e-09 -4.827782321e-10 -1.512622474e-09
t13 -1.399613749e-09 -4.079782321e-10 -1.402422474e-09
t12 1.714862514e-10 1.547217679e-10 6.742644974e-10
t13 1.910862514e-10 2.388217679e-10 7.155644974e-10
t13 7.608625142e-11 1.535217679e-10 6.662644974e-10
t12 -1.247813749e-09 1.295408739e-09 -2.992355026e-10
t13 -1.327013749e-09 1.341708739e-09 -3.268355026e-10
t13 -1.278713749e-09 1.230908739e-09 -2.356355026e-10
t12 9.219732227e-10 5.177217679e-10 1.278164497e-09
t13 9.353732227e-10 5.326217679e-10 1.371764497e-09
t13 8.834732227e-10 5.993217679e-10 1.246164497e-09
t12 1.472573223e-09 -4.475782321e-10 6.476449743e-11
t13 1.407573223e-09 -4.828782321e-10 4.064497428e-12
t13 1.421473223e-09 -3.964782321e-10 1.275644974e-10
t12 -1.324713749e-09 1.134108739e-09 -7.983550257e-11
t13 -1.265513749e-09 1.133208739e-09 -4.635502572e-12
t13 -1.394013749e-09 1.072308739e-09 -5.653550257e-11
t12 7.546732227e-10 2.622176793e-11 1.390564497e-09
t13 8.425732227e-10 -1.137823207e-11 1.386064497e-09
t13 7.636732227e-10 1.130217679e-10 1.351264497e-09
t12 4.257732227e-10 -2.864782321e-10 -7.633550257e-11
t13 5.150732227e-10 -3.187782321e-10 -8.793550257e-11
t13 3.709732227e-10 -3.505782321e-10 -1.217355026e-10
t12 -1.057713749e-09 1.539217679e-10 -7.163550257e-11
t13 -1.069713749e-09 7.572176793e-11 -1.256355026e-10
t13 -1.141813749e-09 1.656217679e-10 -2.733550257e-11
t12 -8.730137486e-10 -2.870782321e-10 -1.457022474e-09
t13 -9.225137486e-10 -2.143782321e-10 -1.419222474e-09
t13 -9.133137486e-10 -3.654782321e-10 -1.419722474e-09
t12 -1.349513749e-09 6.302176793e-11 -1.411722474e-09
t13 -1.385013749e-09 -8.878232065e-12 -1.464022474e-09
t13 -1.301113749e-09 1.166217679e-10 -1.474522474e-09
t12 8.897732227e-10 -1.852782321e-10 1.112264497e-09
t13 9.496732227e-10 -1.106782321e-10 1.115364497e-09
t13 9.430732227e-10 -2.598782321e-10 1.139864497e-09
t12 1.001773223e-09 -2.945782321e-10 1.302644974e-10
t13 1.067373223e-09 -2.562782321e-10 1.884644974e-10
t13 9.201732227e-10 -2.907782321e-10 1.801644974e-10
t12 3.670862514e-10 -2.400782321e-10 -6.164224739e-10
t13 2.975862514e-10 -2.322782321e-10 -5.510224739e-10
t13 3.605862514e-10 -3.301782321e-10 -6.478224739e-10
t12 -8.853137486e-10 3.329217679e-10 2.277644974e-10
t13 -9.699137486e-10 2.946217679e-10 2.507644974e-10
t13 -8.466137486e-10 2.706217679e-10 1.662644974e-10
t12 6.529732227e-10 -5.555782321e-10 6.164497428e-12
t13 5.882732227e-10 -5.716782321e-10 7.496449743e-11
t13 7.374732227e-10 -5.690782321e-10 4.906449743e-11
t12 -1.203213749e-09 4.439217679e-10 1.909644974e-10
t13 -1.158213749e-09 3.804217679e-10 2.465644974e-10
t13 -1.237113749e-09 3.921217679e-10 1.179644974e-10
t12 -2.019137486e-10 3.732176793e-11 8.643644974e-10
t13 -1.441137486e-10 -3.597823207e-11 8.435644974e-10
t13 -1.789137486e-10 1.049217679e-10 8.005644974e-10
t12 1.071573223e-09 -5.438782321e-10 -3.082355026e-10
t13 1.012373223e-09 -4.823782321e-10 -3.515355026e-10
t13 1.021673223e-09 -6.253782321e-10 -3.027355026e-10
t12 1.007173223e-09 3.045217679e-10 -6.081224739e-10
t13 9.475732227e-10 3.208217679e-10 -6.813224739e-10
t13 9.581732227e-10 2.466217679e-10 -5.497224739e-10
t12 1.148473223e-09 -1.253782321e-10 -2.070355026e-10
t13 1.179273223e-09 -4.907823207e-11 -2.558355026e-10
t13 1.186573223e-09 -1.150782321e-10 -1.198355026e-10
t12 1.459573223e-09 -8.647823207e-11 1.165564497e-09
t13 1.384773223e-09 -1.135782321e-10 1.218764497e-09
t13 1.473373223e-09 -1.591782321e-10 1.104764497e-09
t12 -1.089313749e-09 7.582176793e-11 8.551644974e-10
t13 -1.009213749e-09 8.682176793e-11 8.039644974e-10
t13 -1.125713749e-09 -7.478232065e-12 8.251644974e-10
t12 1.338673223e-09 1.165308739e-09 2.856449743e-11
t13 1.307073223e-09 1.188608739e-09 -5.873550257e-11
t13 1.363873223e-09 1.073308739e-09 2.126449743e-11
t12 8.492732227e-10 -4.195782321e-10 7.106644974e-10
t13 8.063732227e-10 -3.386782321e-10 7.383644974e-10
t13 9.253732227e-10 -4.272782321e-10 7.682644974e-10
t12 7.466732227e-10 -8.858782321e-10 -2.252355026e-10
t13 7.855732227e-10 -8.200782321e-10 -2.828355026e-10
t13 8.019732227e-10 -8.850782321e-10 -1.471355026e-10
t12 8.398732227e-10 -6.561782321e-10 3.466644974e-10
t13 8.450732227e-10 -6.180782321e-10 2.590644974e-10
t13 7.811732227e-10 -7.310782321e-10 3.368644974e-10
t12 -1.517413749e-09 5.020217679e-10 8.636644974e-10
t13 -1.437813749e-09 4.679217679e-10 9.044644974e-10
t13 1.504873223e-09 5.663217679e-10 9.262644974e-10
t12 -1.506713749e-09 5.081217679e-10 -4.708355026e-10
t13 -1.519413749e-09 4.758217679e-10 -5.600355026e-10
t13 1.494573223e-09 5.867217679e-10 -4.658355026e-10
t12 1.092473223e-09 5.242176793e-11 1.561644974e-10
t13 1.153373223e-09 4.121767935e-12 1.003644974e-10
t13 1.027173223e-09 8.762176793e-11 9.566449743e-11
t12 5.000732227e-10 -6.564782321e-10 -2.392355026e-10
t13 5.594732227e-10 -6.509782321e-10 -1.643355026e-10
t13 5.525732227e-10 -6.273782321e-10 -3.137355026e-10
t12 1.113273223e-09 1.713217679e-10 7.554644974e-10
t13 1.098073223e-09 2.649217679e-10 7.682644974e-10
t13 1.208073223e-09 1.611217679e-10 7.638644974e-10
t12 1.418873223e-09 1.162217679e-10 6.052644974e-10
t13 1.428073223e-09 1.861217679e-10 6.700644974e-10
t13 1.375073223e-09 1.580217679e-10 5.310644974e-10
t12 -1.348213749e-09 8.267087393e-10 4.145644974e-10
t13 -1.270413749e-09 7.771087393e-10 4.401644974e-10
t13 -1.369913749e-09 8.789087393e-10 4.917644974e-10
t12 1.512573223e-09 -2.070782321e-10 -3.517355026e-10
t13 1.509073223e-09 -2.954782321e-10 -3.883355026e-10
t13 1.465373223e-09 -1.529782321e-10 -4.150355026e-10
t12 4.834732227e-10 -9.599782321e-10 -3.029355026e-10
t13 4.205732227e-10 -8.888782321e-10 -2.910355026e-10
t13 5.685732227e-10 -9.199782321e-10 -2.852355026e-10
t12 -1.048513749e-09 -4.597823207e-11 2.476644974e-10
t13 -1.042413749e-09 -5.697823207e-11 1.527644974e-10
t13 -9.581137486e-10 -3.327823207e-11 2.762644974e-10
t12 8.584732227e-10 -1.780782321e-10 5.442644974e-10
t13 8.045732227e-10 -1.330782321e-10 6.093644974e-10
t13 9.275732227e-10 -1.153782321e-10 5.228644974e-10
t12 -1.470813749e-09 -1.083782321e-10 5.762644974e-10
t13 -1.442413749e-09 -1.089782321e-10 4.848644974e-10
t13 1.516973223e-09 -4.107823207e-11 5.798644974e-10
t12 7.527732227e-10 -1.993782321e-10 8.711644974e-10
t13 7.864732227e-10 -1.237782321e-10 8.230644974e-10
t13 8.037732227e-10 -2.010782321e-10 9.521644974e-10
t12 -6.252137486e-10 9.247087393e-10 -4.044355026e-10
t13 -5.905137486e-10 8.563087393e-10 -4.617355026e-10
t13 -7.113137486e-10 8.923087393e-10 -3.779355026e-10
t12 1.838862514e-10 8.637087393e-10 1.468864497e-09
t13 1.036862514e-10 8.424087393e-10 1.516664497e-09
t13 2.090862514e-10 9.501087393e-10 1.501364497e-09
t12 -7.117137486e-10 4.559217679e-10 3.844644974e-10
t13 -7.656137486e-10 4.947217679e-10 4.533644974e-10
t13 -7.740137486e-10 4.319217679e-10 3.158644974e-10
t12 5.211732227e-10 6.210087393e-10 -1.028322474e-09
t13 5.996732227e-10 6.281087393e-10 -1.082622474e-09
t13 5.461732227e-10 6.604087393e-10 -9.447224739e-10
t12 5.001732227e-10 -7.655782321e-10 1.045464497e-09
t13 4.397732227e-10 -8.089782321e-10 1.105764497e-09
t13 4.526732227e-10 -6.880782321e-10 1.015564497e-09
t12 1.095873223e-09 -1.647823207e-11 4.522644974e-10
t13 1.105873223e-09 7.432176793e-11 4.807644974e-10
t13 1.108873223e-09 -1.347823207e-11 3.574644974e-10
t12 1.465273223e-09 7.659087393e-10 1.025964497e-09
t13 1.481873223e-09 7.687087393e-10 1.120264497e-09
t13 1.492773223e-09 8.519087393e-10 9.942644974e-10
t12 -1.502913749e-09 -5.122782321e-10 -1.068022474e-09
t13 -1.429813749e-09 -5.011782321e-10 -1.128822474e-09
t13 -1.485813749e-09 -4.490782321e-10 -9.982224739e-10
t12 7.550732227e-10 -4.969782321e-10 1.273864497e-09
t13 6.661732227e-10 -4.776782321e-10 1.303764497e-09
t13 8.114732227e-10 -4.665782321e-10 1.344864497e-09
t12 -1.374857833e-14 1.473608739e-09 9.244644974e-10
t13 -4.061374858e-11 -1.495478232e-09 9.264644974e-10
t13 -7.381374858e-11 1.412608739e-09 9.237644974e-10
t12 7.325732227e-10 -2.396782321e-10 2.717644974e-10
t13 7.638732227e-10 -1.639782321e-10 3.213644974e-10
t13 6.371732227e-10 -2.319782321e-10 2.738644974e-10
t12 -1.090113749e-09 -1.088782321e-10 1.454664497e-09
t13 -1.033213749e-09 -1.230782321e-10 1.379064497e-09
t13 -1.133713749e-09 -1.929782321e-10 1.468064497e-09
t12 1.128173223e-09 -2.892782321e-10 3.814644974e-10
t13 1.148273223e-09 -2.130782321e-10 4.358644974e-10
t13 1.076873223e-09 -3.465782321e-10 4.384644974e-10
t12 -1.385413749e-09 1.677217679e-10 -6.786224739e-10
t13 -1.417913749e-09 1.633217679e-10 -5.887224739e-10
t13 -1.463713749e-09 1.819217679e-10 -7.318224739e-10
t12 -1.427213749e-09 4.544217679e-10 4.241644974e-10
t13 -1.511013749e-09 4.196217679e-10 3.935644974e-10
t13 -1.381713749e-09 4.810217679e-10 3.442644974e-10
t12 -1.506813749e-09 1.752217679e-10 1.106364497e-09
t13 -1.444413749e-09 1.682217679e-10 1.034164497e-09
t13 -1.506813749e-09 8.832176793e-11 1.146664497e-09
t12 1.508573223e-09 -5.870782321e-10 -2.698355026e-10
t13 1.489173223e-09 -4.938782321e-10 -2.593355026e-10
t13 -1.477613749e-09 -6.043782321e-10 -2.063355026e-10
t12 -1.269413749e-09 6.658087393e-10 -3.615355026e-10
t13 -1.347513749e-09 6.435087393e-10 -4.121355026e-10
t13 -1.268913749e-09 7.615087393e-10 -3.589355026e-10
t12 7.393732227e-10 6.798087393e-10 -8.883550257e-11
t13 8.348732227e-10 6.865087393e-10 -8.943550257e-11
t13 7.097732227e-10 7.623087393e-10 -5.043550257e-11
t12 1.364073223e-09 -2.887782321e-10 2.511644974e-10
t13 1.303673223e-09 -2.860782321e-10 3.253644974e-10
t13 1.443073223e-09 -2.449782321e-10 2.829644974e-10
t12 2.516862514e-10 -4.297823207e-11 4.999644974e-10
t13 1.794862514e-10 -1.052782321e-10 4.909644974e-10
t13 2.207862514e-10 2.042176793e-11 5.646644974e-10
t12 1.402573223e-09 -8.466782321e-10 -1.422622474e-09
t13 1.311573223e-09 -8.191782321e-10 -1.411822474e-09
t13 1.396873223e-09 -9.375782321e-10 -1.452022474e-09
t12 1.221373223e-09 -3.020782321e-10 9.197644974e-10
t13 1.311173223e-09 -3.010782321e-10 9.528644974e-10
t13 1.219773223e-09 -2.340782321e-10 8.524644974e-10
t12 -8.741374858e-11 8.282176793e-11 3.120644974e-10
t13 -1.761137486e-10 1.076217679e-10 2.861644974e-10
t13 -4.371374858e-11 6.072176793e-11 2.297644974e-10
t12 1.246073223e-09 -4.617782321e-10 -1.075722474e-09
t13 1.226773223e-09 -5.157782321e-10 -9.990224739e-10
t13 1.341573223e-09 -4.618782321e-10 -1.081722474e-09
t12 -1.338713749e-09 7.520087393e-10 7.072644974e-10
t13 -1.276413749e-09 6.820087393e-10 7.269644974e-10
t13 -1.423113749e-09 7.179087393e-10 7.367644974e-10
t12 3.504862514e-10 2.553217679e-10 3.486644974e-10
t13 2.898862514e-10 1.855217679e-10 3.233644974e-10
t13 4.093862514e-10 2.141217679e-10 4.118644974e-10
t12 -1.306413749e-09 1.678217679e-10 1.016449743e-11
t13 -1.326013749e-09 1.512217679e-10 1.023644974e-10
t13 -1.382513749e-09 1.341217679e-10 -3.703550257e-11
t12 -1.237013749e-09 -1.146782321e-10 7.288644974e-10
t13 -1.327713749e-09 -1.224782321e-10 6.990644974e-10
t13 -1.186313749e-09 -1.030782321e-10 6.485644974e-10
t12 1.218573223e-09 -1.141782321e-10 -1.142022474e-09
t13 1.285073223e-09 -1.641782321e-10 -1.189322474e-09
t13 1.217473223e-09 -2.877823207e-11 -1.185422474e-09
t12 2.480862514e-10 4.620217679e-10 1.408564497e-09
t13 3.011862514e-10 4.455217679e-10 1.486464497e-09
t13 1.578862514e-10 4.496217679e-10 1.437964497e-09
t12 1.141973223e-09 8.400087393e-10 1.433464497e-09
t13 1.197173223e-09 7.634087393e-10 1.417764497e-09
t13 1.066873223e-09 8.059087393e-10 1.482164497e-09
t12 -9.672137486e-10 -1.205978232e-09 -4.265355026e-10
t13 -1.019413749e-09 -1.130478232e-09 -4.538355026e-10
t13 -1.010613749e-09 -1.237778232e-09 -3.473355026e-10
t12 -1.489413749e-09 -8.478782321e-10 -1.207622474e-09
t13 -1.425013749e-09 -7.953782321e-10 -1.255222474e-09
t13 1.500573223e-09 -8.704782321e-10 -1.273322474e-09
t12 -1.183713749e-09 -1.149078232e-09 4.096449743e-11
t13 -1.196513749e-09 -1.166878232e-09 1.341644974e-10
t13 -1.272013749e-09 -1.150178232e-09 3.964497428e-12
t12 1.511573223e-09 -4.592782321e-10 4.474644974e-10
t13 1.432373223e-09 -4.535782321e-10 5.008644974e-10
t13 -1.472813749e-09 -4.409782321e-10 5.085644974e-10
t12 -7.312137486e-10 -9.644782321e-10 1.436449743e-11
t13 -7.159137486e-10 -8.801782321e-10 5.696449743e-11
t13 -7.516137486e-10 -1.024278232e-09 8.626449743e-11
t12 1.098873223e-09 4.130217679e-10 8.770644974e-10
t13 1.157973223e-09 4.863217679e-10 8.944644974e-10
t13 1.018373223e-09 4.355217679e-10 9.236644974e-10
t12 1.398973223e-09 -1.741782321e-10 -9.340224739e-10
t13 1.350273223e-09 -1.703782321e-10 -1.016422474e-09
t13 1.395273223e-09 -8.487823207e-11 -8.998224739e-10
t12 1.014862514e-10 6.525087393e-10 7.370644974e-10
t13 1.171862514e-10 5.888087393e-10 8.067644974e-10
t13 1.598862514e-10 7.255087393e-10 7.576644974e-10
t12 5.673732227e-10 5.368217679e-10 1.043064497e-09
t13 5.652732227e-10 6.319217679e-10 1.054164497e-09
t13 6.504732227e-10 5.197217679e-10 9.987644974e-10
t12 1.105273223e-09 -3.800782321e-10 1.242764497e-09
t13 1.167073223e-09 -4.497782321e-10 1.220864497e-09
t13 1.049473223e-09 -4.178782321e-10 1.310764497e-09
t12 -1.118137486e-10 -9.476782321e-10 -4.109355026e-10
t13 -1.020137486e-10 -1.025678232e-09 -4.656355026e-10
t13 -1.901137486e-10 -9.041782321e-10 -4.450355026e-10
t12 -7.470137486e-10 3.267217679e-10 -2.113355026e-10
t13 -6.611137486e-10 2.985217679e-10 -1.800355026e-10
t13 -8.085137486e-10 2.934217679e-10 -1.460355026e-10
t12 1.257773223e-09 1.039308739e-09 -3.602355026e-10
t13 1.266873223e-09 1.103608739e-09 -2.899355026e-10
t13 1.175673223e-09 9.939087393e-10 -3.408355026e-10
t12 -1.513613749e-09 4.420217679e-10 -1.993355026e-10
t13 -1.512613749e-09 5.251217679e-10 -1.517355026e-10
t13 -1.473313749e-09 4.623217679e-10 -2.838355026e-10
t12 1.035273223e-09 -8.367823207e-11 1.463764497e-09
t13 1.054673223e-09 -1.053782321e-10 1.372564497e-09
t13 1.117973223e-09 -5.007823207e-11 1.498564497e-09
t12 1.443073223e-09 4.091217679e-10 6.499644974e-10
t13 1.522773223e-09 3.953217679e-10 5.987644974e-10
t13 1.474273223e-09 4.261217679e-10 7.388644974e-10
t12 -8.950137486e-10 -1.978782321e-10 -8.594224739e-10
t13 -8.699137486e-10 -1.469782321e-10 -7.823224739e-10
t13 -8.217137486e-10 -1.871782321e-10 -9.201224739e-10
t12 5.900732227e-10 4.107217679e-10 2.119644974e-10
t13 6.569732227e-10 3.598217679e-10 1.663644974e-10
t13 5.115732227e-10 3.561217679e-10 2.081644974e-10
t12 -4.141374858e-11 -1.581782321e-10 7.741644974e-10
t13 -6.101374858e-11 -1.598782321e-10 6.804644974e-10
t13 -2.561374858e-11 -2.496782321e-10 7.971644974e-10
t12 -7.028137486e-10 2.334217679e-10 8.569644974e-10
t13 -6.727137486e-10 2.532217679e-10 9.456644974e-10
t13 -6.976137486e-10 1.380217679e-10 8.505644974e-10
t12 7.573732227e-10 3.662176793e-11 3.603644974e-10
t13 7.975732227e-10 1.202217679e-10 3.838644974e-10
t13 6.737732227e-10 6.062176793e-11 3.202644974e-10
t12 5.632732227e-10 2.412217679e-10 -5.066355026e-10
t13 6.408732227e-10 2.725217679e-10 -5.531355026e-10
t13 5.454732227e-10 1.553217679e-10 -5.448355026e-10
t12 3.270862514e-10 3.525217679e-10 9.860644974e-10
t13 3.766862514e-10 2.791217679e-10 9.496644974e-10
t13 3.926862514e-10 4.204217679e-10 1.001864497e-09
t12 5.731732227e-10 -5.282782321e-10 8.143644974e-10
t13 5.041732227e-10 -4.897782321e-10 7.603644974e-10
t13 6.224732227e-10 -5.839782321e-10 7.540644974e-10
t12 8.164732227e-10 2.524217679e-10 1.268364497e-09
t13 7.982732227e-10 2.477217679e-10 1.174564497e-09
t13 8.672732227e-10 3.329217679e-10 1.278864497e-09
t12 -1.305813749e-09 -2.290782321e-10 1.014964497e-09
t13 -1.401013749e-09 -2.383782321e-10 1.017464497e-09
t13 -1.281813749e-09 -2.516782321e-10 9.251644974e-10
t12 -1.338213749e-09 -2.976782321e-10 9.016449743e-11
t13 -1.285213749e-09 -2.536782321e-10 2.366449743e-11
t13 -1.393513749e-09 -3.581782321e-10 4.066449743e-11
t12 7.660732227e-10 1.239608739e-09 -3.557355026e-10
t13 8.222732227e-10 1.306308739e-09 -3.952355026e-10
t13 8.195732227e-10 1.201408739e-09 -2.861355026e-10
t12 -9.326137486e-10 -7.447823207e-11 -5.363355026e-10
t13 -8.871137486e-10 2.521767935e-12 -5.022355026e-10
t13 -1.019713749e-09 -4.247823207e-11 -5.599355026e-10
t12 1.141473223e-09 -1.867782321e-10 -7.907224739e-10
t13 1.082773223e-09 -1.977782321e-10 -8.655224739e-10
t13 1.229373223e-09 -1.942782321e-10 -8.280224739e-10
t12 4.356732227e-10 9.774087393e-10 3.746449743e-11
t13 4.211732227e-10 8.860087393e-10 1.326449743e-11
t13 4.292732227e-10 9.782087393e-10 1.329644974e-10
t12 -1.099813749e-09 -3.489782321e-10 -7.886224739e-10
t13 -1.163013749e-09 -2.813782321e-10 -8.128224739e-10
t13 -1.015813749e-09 -3.158782321e-10 -8.206224739e-10
t12 -6.434137486e-10 6.506087393e-10 -9.705224739e-10
t13 -7.031137486e-10 6.268087393e-10 -8.996224739e-10
t13 -6.042137486e-10 7.332087393e-10 -9.422224739e-10
t12 3.786251422e-12 -1.194782321e-10 -1.387322474e-09
t13 -4.311374858e-11 -5.017823207e-11 -1.433722474e-09
t13 9.038625142e-11 -1.212782321e-10 -1.428022474e-09
t12 1.291573223e-09 1.115108739e-09 -9.801224739e-10
t13 1.278573223e-09 1.105008739e-09 -8.858224739e-10
t13 1.218673223e-09 1.170208739e-09 -1.008722474e-09
t12 9.274732227e-10 7.215087393e-10 -8.403224739e-10
t13 9.456732227e-10 8.024087393e-10 -8.880224739e-10
t13 9.143732227e-10 6.558087393e-10 -9.087224739e-10
t12 8.967732227e-10 2.087217679e-10 -3.381355026e-10
t13 9.050732227e-10 1.366217679e-10 -2.757355026e-10
t13 8.147732227e-10 2.518217679e-10 -3.143355026e-10
t12 1.349573223e-09 2.120217679e-10 9.240644974e-10
t13 1.395073223e-09 1.914217679e-10 1.005664497e-09
t13 1.332873223e-09 3.062217679e-10 9.289644974e-10
t12 -2.966137486e-10 5.011217679e-10 1.150864497e-09
t13 -3.030137486e-10 4.056217679e-10 1.152364497e-09
t13 -3.343137486e-10 5.263217679e-10 1.066664497e-09
t12 -1.008213749e-09 -8.937823207e-11 -1.356222474e-09
t13 -1.043313749e-09 -7.897823207e-11 -1.444622474e-09
t13 -1.084213749e-09 -7.867823207e-11 -1.298822474e-09
t12 -9.927137486e-10 3.588217679e-10 1.057764497e-09
t13 -9.545137486e-10 4.110217679e-10 1.128164497e-09
t13 -9.356137486e-10 3.745217679e-10 9.824644974e-10
t12 -1.219613749e-09 -1.837823207e-11 -1.193622474e-09
t13 -1.270713749e-09 -9.647823207e-11 -1.172622474e-09
t13 -1.275613749e-09 3.172176793e-11 -1.252922474e-09
t12 -1.280013749e-09 -7.345782321e-10 -1.367422474e-09
t13 -1.223713749e-09 -7.955782321e-10 -1.319722474e-09
t13 -1.290913749e-09 -7.744782321e-10 -1.453722474e-09
t12 -1.285513749e-09 -4.862782321e-10 -1.249622474e-09
t13 -1.273613749e-09 -5.671782321e-10 -1.299422474e-09
t13 -1.214213749e-09 -4.865782321e-10 -1.185822474e-09
t12 9.737732227e-10 -3.478782321e-10 -4.828355026e-10
t13 8.832732227e-10 -3.439782321e-10 -5.138355026e-10
t13 1.008873223e-09 -2.605782321e-10 -5.002355026e-10
t12 8.139732227e-10 -6.097823207e-11 -8.116224739e-10
t13 7.994732227e-10 -1.545782321e-10 -8.256224739e-10
t13 8.826732227e-10 -5.697823207e-11 -7.451224739e-10
t12 -2.997137486e-10 1.025217679e-10 -9.751224739e-10
t13 -2.464137486e-10 1.442217679e-10 -1.042922474e-09
t13 -3.694137486e-10 1.656217679e-10 -9.573224739e-10
t12 -5.238137486e-10 2.854217679e-10 -9.742224739e-10
t13 -5.586137486e-10 2.996217679e-10 -1.062222474e-09
t13 -4.988137486e-10 3.727217679e-10 -9.439224739e-10
t12 -1.164013749e-09 1.441217679e-10 1.418064497e-09
t13 -1.151013749e-09 1.451217679e-10 1.323164497e-09
t13 -1.170113749e-09 5.132176793e-11 1.440464497e-09
t12 -1.468013749e-09 5.145217679e-10 -1.089722474e-09
t13 -1.481813749e-09 5.933217679e-10 -1.037122474e-09
t13 -1.374413749e-09 4.962217679e-10 -1.081422474e-09
t12 9.846732227e-10 1.189217679e-10 -1.395322474e-09
t13 1.035473223e-09 1.584217679e-10 -1.466222474e-09
t13 9.486732227e-10 3.882176793e-11 -1.433322474e-09
t12 1.267973223e-09 8.769087393e-10 -1.109122474e-09
t13 1.231173223e-09 8.027087393e-10 -1.061222474e-09
t13 1.268873223e-09 9.484087393e-10 -1.045522474e-09
t12 7.789732227e-10 -3.369782321e-10 -8.089224739e-10
t13 6.915732227e-10 -3.482782321e-10 -8.462224739e-10
t13 8.383732227e-10 -3.681782321e-10 -8.770224739e-10
t12 -1.464013749e-09 -4.263782321e-10 -6.247224739e-10
t13 1.502973223e-09 -4.443782321e-10 -6.556224739e-10
t13 -1.432913749e-09 -5.101782321e-10 -5.907224739e-10
t12 1.485673223e-09 -3.267782321e-10 1.028564497e-09
t13 1.527073223e-09 -4.016782321e-10 1.071364497e-09
t13 1.510873223e-09 -3.346782321e-10 9.365644974e-10
t12 1.202073223e-09 -6.735782321e-10 -9.054224739e-10
t13 1.217073223e-09 -6.249782321e-10 -8.243224739e-10
t13 1.289073223e-09 -7.029782321e-10 -9.323224739e-10
t12 -1.173613749e-09 4.461217679e-10 -1.251022474e-09
t13 -1.118913749e-09 4.020217679e-10 -1.185922474e-09
t13 -1.168913749e-09 5.387217679e-10 -1.227522474e-09
t12 1.223173223e-09 1.270217679e-10 -6.911224739e-10
t13 1.156673223e-09 1.655217679e-10 -6.340224739e-10
t13 1.178873223e-09 1.153217679e-10 -7.751224739e-10
t12 -9.102137486e-10 1.497217679e-10 -1.179022474e-09
t13 -8.346137486e-10 1.414217679e-10 -1.237122474e-09
t13 -9.694137486e-10 7.972176793e-11 -1.206522474e-09
t12 -9.955137486e-10 6.852176793e-11 1.106064497e-09
t13 -1.035713749e-09 6.362176793e-11 1.019364497e-09
t13 -9.644137486e-10 1.587217679e-10 1.113064497e-09
t12 4.117732227e-10 1.349217679e-10 -1.306522474e-09
t13 4.004732227e-10 5.532176793e-11 -1.254622474e-09
t13 5.057732227e-10 1.389217679e-10 -1.324222474e-09
t12 1.295273223e-09 9.432176793e-11 -2.678355026e-10
t13 1.367273223e-09 1.013217679e-10 -3.304355026e-10
t13 1.251273223e-09 1.792217679e-10 -2.723355026e-10
t12 4.328625142e-11 9.880087393e-10 -1.329322474e-09
t13 4.348625142e-11 9.052087393e-10 -1.281322474e-09
t13 1.016862514e-10 1.044908739e-09 -1.279322474e-09
t12 9.705732227e-10 -7.314782321e-10 -1.056122474e-09
t13 9.596732227e-10 -8.221782321e-10 -1.027322474e-09
t13 1.056373223e-09 -7.057782321e-10 -1.022322474e-09
t12 1.413873223e-09 9.769087393e-10 -1.419622474e-09
t13 1.333473223e-09 9.676087393e-10 -1.368522474e-09
t13 1.472873223e-09 9.105087393e-10 -1.384022474e-09
t12 -1.500013749e-09 4.609217679e-10 -8.122224739e-10
t13 1.460773223e-09 4.603217679e-10 -8.240224739e-10
t13 -1.464713749e-09 4.454217679e-10 -8.998224739e-10
t12 9.088732227e-10 -2.336782321e-10 -9.693550257e-11
t13 9.703732227e-10 -2.005782321e-10 -1.624355026e-10
t13 9.607732227e-10 -2.407782321e-10 -1.673550257e-11
t12 5.403732227e-10 -4.747823207e-11 -3.180355026e-10
t13 5.923732227e-10 -9.707823207e-11 -3.812355026e-10
t13 5.841732227e-10 -6.207823207e-11 -2.342355026e-10
t12 5.495732227e-10 -3.421782321e-10 -1.369422474e-09
t13 5.745732227e-10 -4.089782321e-10 -1.433222474e-09
t13 6.181732227e-10 -2.757782321e-10 -1.376022474e-09
t12 1.163273223e-09 1.859217679e-10 1.459464497e-09
t13 1.164473223e-09 2.306217679e-10 1.374864497e-09
t13 1.246173223e-09 2.104217679e-10 1.500664497e-09
t12 1.506473223e-09 8.406087393e-10 -7.891224739e-10
t13 1.418473223e-09 8.207087393e-10 -8.211224739e-10
t13 1.494073223e-09 8.625087393e-10 -6.968224739e-10
t12 -1.417713749e-09 -3.248782321e-10 -8.848224739e-10
t13 -1.498413749e-09 -2.753782321e-10 -8.992224739e-10
t13 -1.389913749e-09 -3.002782321e-10 -7.966224739e-10
t12 -4.692137486e-10 1.515217679e-10 1.378564497e-09
t13 -4.454137486e-10 1.146217679e-10 1.293564497e-09
t13 -5.200137486e-10 8.242176793e-11 1.421264497e-09
t12 6.129732227e-10 1.700217679e-10 -9.582224739e-10
t13 5.249732227e-10 2.038217679e-10 -9.744224739e-10
t13 6.029732227e-10 1.124217679e-10 -8.824224739e-10
t12 1.628625142e-11 -9.327823207e-11 -1.572355026e-10
t13 9.298625142e-11 -1.046782321e-10 -2.133355026e-10
t13 -1.851374858e-11 -7.478232065e-12 -1.813355026e-10
t12 -1.423113749e-09 3.994217679e-10 -1.386822474e-09
t13 -1.347513749e-09 4.005217679e-10 -1.328122474e-09
t13 -1.442413749e-09 4.918217679e-10 -1.402822474e-09
t12 1.112473223e-09 5.316217679e-10 -1.161822474e-09
t13 1.162473223e-09 4.782217679e-10 -1.100122474e-09
t13 1.175673223e-09 5.557217679e-10 -1.229522474e-09
t12 -1.045913749e-09 8.319087393e-10 -1.432122474e-09
t13 -1.082313749e-09 8.171087393e-10 -1.344822474e-09
t13 -9.555137486e-10 8.011087393e-10 -1.425922474e-09
t12 1.311473223e-09 -2.671782321e-10 1.439464497e-09
t13 1.245073223e-09 -2.751782321e-10 1.370964497e-09
t13 1.320573223e-09 -3.557782321e-10 1.474564497e-09
t12 -1.180313749e-09 9.572087393e-10 -7.283224739e-10
t13 -1.216613749e-09 8.703087393e-10 -7.459224739e-10
t13 -1.128413749e-09 9.776087393e-10 -8.061224739e-10
t12 -9.236137486e-10 -8.617782321e-10 -1.011322474e-09
t13 -8.563137486e-10 -7.937782321e-10 -1.015522474e-09
t13 -1.004413749e-09 -8.143782321e-10 -9.918224739e-10
t12 -1.327313749e-09 7.769087393e-10 1.453764497e-09
t13 -1.237313749e-09 7.819087393e-10 1.486064497e-09
t13 -1.339813749e-09 6.846087393e-10 1.431764497e-09
t12 1.247273223e-09 7.482087393e-10 -7.877224739e-10
t13 1.181573223e-09 7.623087393e-10 -7.195224739e-10
t13 1.240873223e-09 6.548087393e-10 -8.081224739e-10
t12 1.435573223e-09 -2.328782321e-10 -1.285422474e-09
t13 1.451573223e-09 -1.843782321e-10 -1.366422474e-09
t13 1.521573223e-09 -2.393782321e-10 -1.243922474e-09
t12 -7.851137486e-10 1.424308739e-09 -3.855355026e-10
t13 -7.138137486e-10 1.459708739e-09 -3.324355026e-10
t13 -8.287137486e-10 1.501508739e-09 -4.217355026e-10
t12 -1.120613749e-09 -7.081782321e-10 -9.624224739e-10
t13 -1.109713749e-09 -6.650782321e-10 -8.776224739e-10
t13 -1.179313749e-09 -7.815782321e-10 -9.446224739e-10
t12 1.149873223e-09 2.068217679e-10 -9.725224739e-10
t13 1.057373223e-09 1.942217679e-10 -9.938224739e-10
t13 1.193973223e-09 2.083217679e-10 -1.057422474e-09
t12 -1.188513749e-09 -3.432782321e-10 -1.684355026e-10
t13 -1.197013749e-09 -3.575782321e-10 -2.627355026e-10
t13 -1.131513749e-09 -4.140782321e-10 -1.385355026e-10
t12 1.135973223e-09 3.204217679e-10 1.222164497e-09
t13 1.104873223e-09 2.933217679e-10 1.135764497e-09
t13 1.076073223e-09 3.903217679e-10 1.248364497e-09
t12 -1.244137486e-10 9.228087393e-10 -1.061622474e-09
t13 -1.578137486e-10 8.909087393e-10 -1.145422474e-09
t13 -7.011374858e-11 8.512087393e-10 -1.028622474e-09
t12 -1.054013749e-09 4.380217679e-10 -2.209355026e-10
t13 -1.067613749e-09 3.454217679e-10 -2.409355026e-10
t13 -1.120813749e-09 4.837217679e-10 -2.720355026e-10
t12 1.330573223e-09 7.391087393e-10 -4.287355026e-10
t13 1.262173223e-09 6.721087393e-10 -4.311355026e-10
t13 1.289273223e-09 8.169087393e-10 -4.660355026e-10
t12 1.225273223e-09 4.825217679e-10 5.074644974e-10
t13 1.283173223e-09 4.503217679e-10 5.764644974e-10
t13 1.173073223e-09 5.506217679e-10 5.498644974e-10
t12 1.264273223e-09 4.244217679e-10 -8.223224739e-10
t13 1.231673223e-09 3.660217679e-10 -8.908224739e-10
t13 1.224073223e-09 3.917217679e-10 -7.418224739e-10
t12 -1.321613749e-09 -9.107782321e-10 -9.661224739e-10
t13 -1.333813749e-09 -1.005678232e-09 -9.684224739e-10
t13 -1.313513749e-09 -8.854782321e-10 -1.058122474e-09
t12 9.721732227e-10 6.391087393e-10 -1.512322474e-09
t13 9.371732227e-10 7.018087393e-10 -1.449022474e-09
t13 9.583732227e-10 5.536087393e-10 -1.471422474e-09
t12 -1.409513749e-09 1.256108739e-09 2.414644974e-10
t13 -1.327413749e-09 1.213408739e-09 2.171644974e-10
t13 -1.476113749e-09 1.211708739e-09 1.889644974e-10
t12 1.499373223e-09 1.242608739e-09 -6.054224739e-10
t13 -1.521713749e-09 1.310408739e-09 -5.475224739e-10
t13 1.437373223e-09 1.288708739e-09 -6.620224739e-10
t12 -1.377137486e-10 -9.225782321e-10 9.526449743e-11
t13 -2.266137486e-10 -8.998782321e-10 6.786449743e-11
t13 -8.461374858e-11 -8.472782321e-10 6.946449743e-11
t12 3.600862514e-10 -1.140978232e-09 1.469464497e-09
t13 2.902862514e-10 -1.079378232e-09 1.447064497e-09
t13 3.210862514e-10 -1.227278232e-09 1.455564497e-09
t12 -2.901137486e-10 1.431508739e-09 9.137644974e-10
t13 -3.275137486e-10 1.468308739e-09 8.336644974e-10
t13 -3.267137486e-10 1.343208739e-09 9.189644974e-10
t12 1.140862514e-10 1.020908739e-09 5.190644974e-10
t13 9.988625142e-11 1.050908739e-09 4.293644974e-10
t13 1.375862514e-10 9.285087393e-10 5.101644974e-10
t12 -2.496137486e-10 1.412608739e-09 5.670644974e-10
t13 -3.073137486e-10 1.470008739e-09 5.167644974e-10
t13 -1.835137486e-10 1.383908739e-09 5.040644974e-10
t12 -2.198137486e-10 7.565087393e-10 5.479644974e-10
t13 -3.114137486e-10 7.684087393e-10 5.729644974e-10
t13 -2.228137486e-10 6.957087393e-10 4.741644974e-10
t12 -3.513137486e-10 -2.496782321e-10 -6.118224739e-10
t13 -3.228137486e-10 -3.181782321e-10 -5.512224739e-10
t13 -2.940137486e-10 -2.596782321e-10 -6.878224739e-10
t12 4.280732227e-10 1.294308739e-09 1.212064497e-09
t13 4.998732227e-10 1.354708739e-09 1.230964497e-09
t13 3.937732227e-10 1.323608739e-09 1.127664497e-09
t12 -6.950137486e-10 -1.231878232e-09 -3.754355026e-10
t13 -7.893137486e-10 -1.222378232e-09 -3.889355026e-10
t13 -6.777137486e-10 -1.324578232e-09 -3.921355026e-10
t12 -7.715137486e-10 1.110508739e-09 7.045644974e-10
t13 -7.145137486e-10 1.069808739e-09 6.392644974e-10
t13 -7.341137486e-10 1.197608739e-09 7.181644974e-10
t12 1.882862514e-10 -1.019782321e-10 9.405644974e-10
t13 1.225862514e-10 -8.897823207e-11 8.722644974e-10
t13 2.697862514e-10 -1.177782321e-10 8.927644974e-10
t12 1.422862514e-10 9.000087393e-10 -1.513355026e-10
t13 1.877862514e-10 8.233087393e-10 -1.861355026e-10
t13 7.028625142e-11 9.150087393e-10 -2.125355026e-10
t12 -1.046813749e-09 1.323208739e-09 -4.802355026e-10
t13 -1.113513749e-09 1.306708739e-09 -4.135355026e-10
t13 -9.881137486e-10 1.387208739e-09 -4.401355026e-10
t12 -6.804137486e-10 -7.102782321e-10 -9.374224739e-10
t13 -6.046137486e-10 -7.469782321e-10 -9.829224739e-10
t13 -6.800137486e-10 -7.530782321e-10 -8.518224739e-10
t12 -3.981374858e-11 1.165108739e-09 9.305644974e-10
t13 -1.791374858e-11 1.205408739e-09 8.465644974e-10
t13 -5.751374858e-11 1.073508739e-09 9.093644974e-10
t12 -8.871374858e-11 1.318508739e-09 3.664497428e-12
t13 -1.452137486e-10 1.242208739e-09 -8.435502572e-12
t13 -5.741374858e-11 1.339408739e-09 -8.443550257e-11
t12 4.682732227e-10 -1.451782321e-10 7.795644974e-10
t13 4.432732227e-10 -2.359782321e-10 7.625644974e-10
t13 5.579732227e-10 -1.506782321e-10 8.124644974e-10
t12 -7.872137486e-10 -5.387823207e-11 3.725644974e-10
t13 -7.500137486e-10 2.732176793e-11 3.383644974e-10
t13 -7.423137486e-10 -1.231782321e-10 3.241644974e-10
t12 -9.630137486e-10 1.322108739e-09 -1.576355026e-10
t13 -9.141137486e-10 1.373008739e-09 -2.223355026e-10
t13 -9.553137486e-10 1.231508739e-09 -1.876355026e-10
t12 9.835732227e-10 1.013108739e-09 1.249964497e-09
t13 1.034973223e-09 9.630087393e-10 1.313164497e-09
t13 9.329732227e-10 9.471087393e-10 1.202464497e-09
t12 -1.041137486e-10 1.183208739e-09 1.427664497e-09
t13 -1.661374858e-11 1.149708739e-09 1.408064497e-09
t13 -1.416137486e-10 1.203908739e-09 1.342064497e-09
t12 1.472773223e-09 1.335008739e-09 -1.510622474e-09
t13 -1.499013749e-09 1.300808739e-09 1.514364497e-09
t13 1.484873223e-09 1.347008739e-09 -1.416422474e-09
t12 9.650732227e-10 1.514008739e-09 7.883644974e-10
t13 8.764732227e-10 1.505908739e-09 8.235644974e-10
t13 9.626732227e-10 -1.461978232e-09 7.354644974e-10
t12 3.194862514e-10 6.915087393e-10 -2.086355026e-10
t13 3.857862514e-10 6.978087393e-10 -2.773355026e-10
t13 2.804862514e-10 6.049087393e-10 -2.208355026e-10
t12 5.462732227e-10 1.039217679e-10 5.626644974e-10
t13 6.103732227e-10 4.562176793e-11 5.219644974e-10
t13 4.660732227e-10 5.192176793e-11 5.674644974e-10
t12 4.778732227e-10 9.652087393e-10 -3.356355026e-10
t13 5.123732227e-10 1.015708739e-09 -4.092355026e-10
t13 3.839732227e-10 9.585087393e-10 -3.530355026e-10
t12 -8.851374858e-11 -1.341782321e-10 8.846449743e-11
t13 -1.741374858e-11 -1.750782321e-10 1.378644974e-10
t13 -5.121374858e-11 -1.177782321e-10 1.864497428e-12
t12 -6.509137486e-10 -1.218078232e-09 -6.223550257e-11
t13 -6.050137486e-10 -1.202078232e-09 2.016449743e-11
t13 -6.783137486e-10 -1.131278232e-09 -9.173550257e-11
t12 -8.321137486e-10 1.322208739e-09 -8.801224739e-10
t13 -9.012137486e-10 1.277608739e-09 -8.312224739e-10
t13 -8.238137486e-10 1.272008739e-09 -9.612224739e-10
t12 5.915732227e-10 -9.779782321e-10 1.916449743e-11
t13 5.293732227e-10 -9.829782321e-10 -5.353550257e-11
t13 5.981732227e-10 -1.067878232e-09 5.126449743e-11
t12 4.048625142e-11 9.829087393e-10 1.239964497e-09
t13 1.278625142e-11 1.029808739e-09 1.161264497e-09
t13 -2.911374858e-11 9.192087393e-10 1.255764497e-09
t12 -4.712137486e-10 -4.855782321e-10 -4.259355026e-10
t13 -3.934137486e-10 -5.259782321e-10 -3.876355026e-10
t13 -4.952137486e-10 -4.163782321e-10 -3.643355026e-10
t12 -6.442137486e-10 1.399808739e-09 -6.786224739e-10
t13 -6.882137486e-10 1.373308739e-09 -7.594224739e-10
t13 -7.064137486e-10 1.378408739e-09 -6.092224739e-10
t12 2.879862514e-10 -5.767823207e-11 3.756449743e-11
t13 3.027862514e-10 -2.378232065e-12 -3.913550257e-11
t13 3.092862514e-10 -1.461782321e-10 7.864497428e-12
t12 -5.071137486e-10 6.971087393e-10 3.120644974e-10
t13 -4.938137486e-10 7.315087393e-10 4.003644974e-10
t13 -5.746137486e-10 6.300087393e-10 3.224644974e-10
t12 -2.154137486e-10 1.064508739e-09 -6.745224739e-10
t13 -2.418137486e-10 1.123708739e-09 -7.449224739e-10
t13 -2.903137486e-10 1.063308739e-09 -6.148224739e-10
t12 6.828625142e-11 6.830087393e-10 -1.266422474e-09
t13 -2.261374858e-11 6.588087393e-10 -1.284322474e-09
t13 1.120862514e-10 5.999087393e-10 -1.248022474e-09
t12 7.168625142e-11 -3.991782321e-10 8.070644974e-10
t13 -1.321374858e-11 -4.276782321e-10 7.733644974e-10
t13 1.094862514e-10 -4.777782321e-10 8.464644974e-10
t12 -2.975137486e-10 1.126008739e-09 6.352644974e-10
t13 -2.573137486e-10 1.209608739e-09 6.114644974e-10
t13 -2.234137486e-10 1.068008739e-09 6.530644974e-10
t12 -1.362137486e-10 7.244087393e-10 1.465064497e-09
t13 -1.665137486e-10 7.612087393e-10 1.382064497e-09
t13 -1.862137486e-10 7.713087393e-10 -1.523922474e-09
t12 -3.806137486e-10 -4.297823207e-11 1.080664497e-09
t13 -3.018137486e-10 -5.167823207e-11 1.134264497e-09
t13 -3.479137486e-10 -2.757823207e-11 9.920644974e-10
t12 -1.613748578e-12 1.370808739e-09 -1.207822474e-09
t13 -3.613748578e-12 1.296808739e-09 -1.147222474e-09
t13 7.668625142e-11 1.420008739e-09 -1.183022474e-09
t12 4.393732227e-10 -1.250978232e-09 6.143644974e-10
t13 4.660732227e-10 -1.273778232e-09 7.033644974e-10
t13 5.119732227e-10 -1.198978232e-09 5.800644974e-10
t12 -6.011374858e-11 -5.196782321e-10 2.717644974e-10
t13 -1.488137486e-10 -5.214782321e-10 3.076644974e-10
t13 -1.511374858e-11 -5.918782321e-10 3.154644974e-10
t12 -9.684137486e-10 -1.477378232e-09 1.637644974e-10
t13 -1.005213749e-09 -1.524078232e-09 8.866449743e-11
t13 -8.780137486e-10 -1.508178232e-09 1.692644974e-10
t12 -7.995137486e-10 1.404217679e-10 5.806449743e-11
t13 -7.472137486e-10 6.572176793e-11 2.886449743e-11
t13 -8.741137486e-10 1.423217679e-10 -1.835502572e-12
t12 9.012732227e-10 1.470217679e-10 -2.143550257e-11
t13 8.572732227e-10 2.294217679e-10 -2.355025720e-13
t13 8.299732227e-10 8.522176793e-11 -3.743550257e-11
t12 -3.096137486e-10 -1.176782321e-10 5.029644974e-10
t13 -3.367137486e-10 -6.177823207e-11 4.300644974e-10
t13 -3.787137486e-10 -1.835782321e-10 5.094644974e-10
t12 -6.001374858e-11 2.171217679e-10 1.053764497e-09
t13 -7.981374858e-11 1.276217679e-10 1.026364497e-09
t13 -1.452137486e-10 2.550217679e-10 1.075364497e-09
t12 4.250732227e-10 1.255008739e-09 1.826644974e-10
t13 3.672732227e-10 1.210908739e-09 1.202644974e-10
t13 4.928732227e-10 1.295208739e-09 1.282644974e-10
t12 9.630732227e-10 7.854087393e-10 8.638644974e-10
t13 1.057273223e-09 7.761087393e-10 8.491644974e-10
t13 9.339732227e-10 8.460087393e-10 7.957644974e-10
t12 -5.359137486e-10 -1.299178232e-09 -7.916224739e-10
t13 -4.853137486e-10 -1.360378232e-09 -7.382224739e-10
t13 -4.866137486e-10 -1.292278232e-09 -8.734224739e-10
t12 -1.429713749e-09 1.000408739e-09 -5.153355026e-10
t13 -1.488913749e-09 1.072708739e-09 -5.360355026e-10
t13 -1.362213749e-09 1.004508739e-09 -5.831355026e-10
t12 -1.878137486e-10 8.302087393e-10 1.210364497e-09
t13 -1.640137486e-10 8.399087393e-10 1.118164497e-09
t13 -2.418137486e-10 7.512087393e-10 1.213064497e-09
t12 1.276973223e-09 1.061408739e-09 1.396564497e-09
t13 1.337673223e-09 1.031108739e-09 1.464164497e-09
t13 1.203473223e-09 1.000208739e-09 1.401264497e-09
t12 1.335862514e-10 1.344508739e-09 -7.527224739e-10
t13 1.854862514e-10 1.421908739e-09 -7.747224739e-10
t13 1.175862514e-10 1.301508739e-09 -8.367224739e-10
t12 -5.104137486e-10 7.945087393e-10 5.587644974e-10
t13 -5.281137486e-10 7.963087393e-10 6.527644974e-10
t13 -5.240137486e-10 8.848087393e-10 5.300644974e-10
t12 -4.221137486e-10 1.243908739e-09 1.099864497e-09
t13 -4.762137486e-10 1.303308739e-09 1.151864497e-09
t13 -4.657137486e-10 1.239908739e-09 1.014764497e-09
t12 -9.292137486e-10 -1.456578232e-09 -5.925224739e-10
t13 -9.405137486e-10 -1.362878232e-09 -5.770224739e-10
t13 -8.978137486e-10 -1.462378232e-09 -6.828224739e-10
t12 1.656862514e-10 7.759087393e-10 3.833644974e-10
t13 1.330862514e-10 6.989087393e-10 4.298644974e-10
t13 1.247862514e-10 7.709087393e-10 2.969644974e-10
t12 8.404732227e-10 -5.081782321e-10 1.009964497e-09
t13 7.494732227e-10 -4.883782321e-10 9.878644974e-10
t13 8.456732227e-10 -4.949782321e-10 1.104564497e-09
t12 6.915732227e-10 1.030508739e-09 -1.414922474e-09
t13 6.525732227e-10 9.802087393e-10 -1.486422474e-09
t13 7.219732227e-10 1.111308739e-09 -1.456422474e-09
t12 3.528862514e-10 -1.857782321e-10 -1.230122474e-09
t13 4.181862514e-10 -2.331782321e-10 -1.281522474e-09
t13 2.784862514e-10 -1.753782321e-10 -1.289522474e-09
t12 -3.366137486e-10 5.428217679e-10 1.217644974e-10
t13 -4.020137486e-10 5.765217679e-10 1.829644974e-10
t13 -2.694137486e-10 5.036217679e-10 1.776644974e-10
t12 3.693862514e-10 -1.498678232e-09 1.884644974e-10
t13 2.757862514e-10 -1.508878232e-09 2.056644974e-10
t13 3.833862514e-10 1.512608739e-09 1.049644974e-10
t12 -1.419813749e-09 1.367108739e-09 6.759644974e-10
t13 -1.325813749e-09 1.364608739e-09 6.580644974e-10
t13 -1.437113749e-09 1.286508739e-09 7.245644974e-10
t12 1.655862514e-10 1.515008739e-09 1.325064497e-09
t13 2.546862514e-10 1.500208739e-09 1.356964497e-09
t13 1.103862514e-10 1.462308739e-09 1.382864497e-09
t12 -4.031374858e-11 -3.243782321e-10 -7.084224739e-10
t13 -9.081374858e-11 -3.324782321e-10 -7.892224739e-10
t13 9.886251422e-12 -2.435782321e-10 -7.194224739e-10
t12 6.856732227e-10 1.514208739e-09 3.171644974e-10
t13 7.279732227e-10 -1.521378232e-09 4.006644974e-10
t13 5.990732227e-10 -1.501478232e-09 3.238644974e-10
t12 6.186732227e-10 1.446708739e-09 1.296464497e-09
t13 7.037732227e-10 1.487108739e-09 1.313264497e-09
t13 5.628732227e-10 1.477708739e-09 1.367764497e-09
t12 1.165862514e-10 1.217308739e-09 7.213644974e-10
t13 1.296862514e-10 1.134808739e-09 6.745644974e-10
t13 1.094862514e-10 1.283208739e-09 6.522644974e-10
t12 1.028573223e-09 9.720087393e-10 -2.127355026e-10
t13 9.932732227e-10 1.058408739e-09 -1.913355026e-10
t13 9.595732227e-10 9.301087393e-10 -2.642355026e-10
t12 -6.175137486e-10 9.464087393e-10 1.711644974e-10
t13 -5.549137486e-10 8.898087393e-10 2.164644974e-10
t13 -6.909137486e-10 9.545087393e-10 2.319644974e-10
t12 -9.490137486e-10 5.319217679e-10 5.157644974e-10
t13 -1.001713749e-09 4.733217679e-10 5.700644974e-10
t13 -1.005913749e-09 5.542217679e-10 4.421644974e-10
t12 1.010673223e-09 -1.406178232e-09 -9.835502572e-12
t13 9.855732227e-10 -1.350578232e-09 6.396449743e-11
t13 1.009273223e-09 -1.347678232e-09 -8.553550257e-11
t12 -4.287137486e-10 3.505217679e-10 -1.464222474e-09
t13 -4.046137486e-10 2.970217679e-10 1.515964497e-09
t13 -3.930137486e-10 4.372217679e-10 -1.483822474e-09
t12 -3.331374858e-11 4.108217679e-10 1.511464497e-09
t13 -9.501374858e-11 3.526217679e-10 1.466964497e-09
t13 -6.591374858e-11 4.989217679e-10 1.492964497e-09
t12 -1.038613749e-09 -8.397782321e-10 -4.787355026e-10
t13 -1.126813749e-09 -8.735782321e-10 -4.634355026e-10
t13 -9.947137486e-10 -9.089782321e-10 -5.282355026e-10
t12 -4.173137486e-10 1.398308739e-09 3.172644974e-10
t13 -3.259137486e-10 1.369908739e-09 3.140644974e-10
t13 -4.210137486e-10 1.473908739e-09 2.586644974e-10
t12 -1.951137486e-10 -1.344478232e-09 1.775644974e-10
t13 -1.643137486e-10 -1.299778232e-09 2.563644974e-10
t13 -1.239137486e-10 -1.333678232e-09 1.144644974e-10
t12 -5.871137486e-10 3.255217679e-10 1.103964497e-09
t13 -6.323137486e-10 4.065217679e-10 1.127764497e-09
t13 -6.425137486e-10 2.558217679e-10 1.138964497e-09
t12 -9.158137486e-10 1.432176793e-11 6.131644974e-10
t13 -9.204137486e-10 -2.507823207e-11 5.260644974e-10
t13 -8.461137486e-10 7.962176793e-11 6.063644974e-10
t12 7.728625142e-11 1.413808739e-09 5.296644974e-10
t13 3.318625142e-11 1.487508739e-09 5.719644974e-10
t13 9.478625142e-11 1.444308739e-09 4.405644974e-10
t12 -1.907137486e-10 1.444808739e-09 -5.296355026e-10
t13 -1.338137486e-10 1.504808739e-09 -5.778355026e-10
t13 -1.388137486e-10 1.418408739e-09 -4.536355026e-10
t12 1.326862514e-10 -6.508782321e-10 1.497164497e-09
t13 6.718625142e-11 -6.421782321e-10 -1.489322474e-09
t13 1.454862514e-10 -5.616782321e-10 1.464864497e-09
t12 -5.892137486e-10 1.194008739e-09 4.886449743e-11
t13 -5.648137486e-10 1.115408739e-09 9.766449743e-11
t13 -5.057137486e-10 1.231508739e-09 2.056449743e-11
t12 8.318732227e-10 -7.108782321e-10 -1.511622474e-09
t13 7.777732227e-10 -6.712782321e-10 1.475864497e-09
t13 9.004732227e-10 -6.461782321e-10 -1.494822474e-09
t12 -3.297137486e-10 1.356217679e-10 2.285644974e-10
t13 -4.121137486e-10 1.772217679e-10 2.032644974e-10
t13 -3.279137486e-10 5.372176793e-11 1.790644974e-10
t12 -1.126713749e-09 9.325087393e-10 6.510644974e-10
t13 -1.040713749e-09 8.917087393e-10 6.407644974e-10
t13 -1.176113749e-09 8.711087393e-10 7.054644974e-10
t12 5.474732227e-10 1.302608739e-09 8.700644974e-10
t13 4.586732227e-10 1.295308739e-09 9.047644974e-10
t13 5.767732227e-10 1.389608739e-09 8.970644974e-10
t12 5.423732227e-10 -6.010782321e-10 2.696644974e-10
t13 6.006732227e-10 -5.882782321e-10 3.445644974e-10
t13 4.633732227e-10 -6.400782321e-10 3.070644974e-10
t12 1.507073223e-09 -6.299782321e-10 1.510164497e-09
t13 -1.482113749e-09 -6.465782321e-10 1.443464497e-09
t13 1.491273223e-09 -7.154782321e-10 -1.505622474e-09
t12 7.738625142e-11 3.513217679e-10 8.837644974e-10
t13 2.918625142e-11 3.006217679e-10 9.490644974e-10
t13 1.671862514e-10 3.538217679e-10 9.167644974e-10
t12 -1.550137486e-10 8.330087393e-10 4.366449743e-11
t13 -2.154137486e-10 7.587087393e-10 4.496449743e-11
t13 -6.801374858e-11 7.931087393e-10 4.416449743e-11
t12 1.427862514e-10 -1.074378232e-09 -1.615355026e-10
t13 1.400862514e-10 -1.050078232e-09 -6.903550257e-11
t13 1.562862514e-10 -9.915782321e-10 -2.077355026e-10
t12 -3.491137486e-10 -9.958782321e-10 -6.734224739e-10
t13 -3.265137486e-10 -9.048782321e-10 -6.539224739e-10
t13 -3.998137486e-10 -9.910782321e-10 -7.544224739e-10
t12 -1.833137486e-10 1.000108739e-09 2.874644974e-10
t13 -1.672137486e-10 9.341087393e-10 2.200644974e-10
t13 -9.691374858e-11 1.017808739e-09 3.248644974e-10
t12 1.553862514e-10 -8.382782321e-10 -3.648355026e-10
t13 7.248625142e-11 -8.847782321e-10 -3.767355026e-10
t13 1.931862514e-10 -8.338782321e-10 -4.526355026e-10
t12 -4.917137486e-10 1.217408739e-09 8.263644974e-10
t13 -5.593137486e-10 1.266908739e-09 7.800644974e-10
t13 -4.299137486e-10 1.191508739e-09 7.579644974e-10
t12 8.625732227e-10 -1.347278232e-09 -4.414355026e-10
t13 7.919732227e-10 -1.289978232e-09 -4.115355026e-10
t13 9.343732227e-10 -1.330878232e-09 -3.802355026e-10
t12 -8.571374858e-11 -1.237878232e-09 3.943644974e-10
t13 -1.218137486e-10 -1.183078232e-09 4.640644974e-10
t13 -5.813748578e-12 -1.274878232e-09 4.318644974e-10
t12 8.998625142e-11 1.118508739e-09 2.598644974e-10
t13 1.052862514e-10 1.210608739e-09 2.811644974e-10
t13 1.222862514e-10 1.109008739e-09 1.702644974e-10
t12 -2.199137486e-10 1.518608739e-09 -1.164422474e-09
t13 -2.875137486e-10 1.464508739e-09 -1.205122474e-09
t13 -1.417137486e-10 1.463408739e-09 -1.164422474e-09
t12 -9.552137486e-10 -5.921782321e-10 -3.781355026e-10
t13 -9.616137486e-10 -6.812782321e-10 -4.125355026e-10
t13 -8.925137486e-10 -5.486782321e-10 -4.358355026e-10
t12 -3.079137486e-10 6.684087393e-10 8.762644974e-10
t13 -2.634137486e-10 5.977087393e-10 8.295644974e-10
t13 -2.389137486e-10 7.320087393e-10 8.949644974e-10
t12 1.273373223e-09 -5.417782321e-10 -7.683550257e-11
t13 1.266473223e-09 -6.347782321e-10 -5.523550257e-11
t13 1.209373223e-09 -5.285782321e-10 -1.467355026e-10
t12 5.134732227e-10 -1.214478232e-09 -1.949355026e-10
t13 4.986732227e-10 -1.148278232e-09 -2.624355026e-10
t13 4.464732227e-10 -1.280878232e-09 -2.113355026e-10
t12 -1.007613749e-09 1.187808739e-09 6.342644974e-10
t13 -9.182137486e-10 1.156808739e-09 6.482644974e-10
t13 -1.061113749e-09 1.108508739e-09 6.363644974e-10
t12 -1.077137486e-10 8.737087393e-10 9.687644974e-10
t13 -1.781374858e-11 8.413087393e-10 9.751644974e-10
t13 -1.225137486e-10 8.850087393e-10 8.748644974e-10
t12 -3.011374858e-11 -1.457278232e-09 6.958644974e-10
t13 1.486251422e-12 -1.524078232e-09 7.567644974e-10
t13 -1.238137486e-10 -1.450478232e-09 7.142644974e-10
t12 -3.317137486e-10 1.464908739e-09 -1.957355026e-10
t13 -3.123137486e-10 -1.497278232e-09 -2.012355026e-10
t13 -2.900137486e-10 1.436508739e-09 -1.143355026e-10
t12 -7.941137486e-10 7.982087393e-10 -9.553550257e-11
t13 -8.166137486e-10 7.247087393e-10 -3.853550257e-11
t13 -6.985137486e-10 8.022087393e-10 -9.283550257e-11
t12 1.650862514e-10 -1.512978232e-09 -1.060122474e-09
t13 2.241862514e-10 -1.507878232e-09 -9.850224739e-10
t13 1.137862514e-10 -1.432278232e-09 -1.055822474e-09
t12 3.069862514e-10 -3.877782321e-10 7.020644974e-10
t13 2.177862514e-10 -3.869782321e-10 7.367644974e-10
t13 2.957862514e-10 -3.891782321e-10 6.070644974e-10
t12 -3.646137486e-10 -1.297278232e-09 -9.868224739e-10
t13 -3.574137486e-10 -1.378678232e-09 -1.036722474e-09
t13 -2.754137486e-10 -1.279478232e-09 -9.569224739e-10
t12 -7.784137486e-10 -5.416782321e-10 -1.133822474e-09
t13 -7.544137486e-10 -6.042782321e-10 -1.065422474e-09
t13 -6.985137486e-10 -4.914782321e-10 -1.149522474e-09
t12 5.198732227e-10 -1.255878232e-09 1.003644974e-10
t13 5.025732227e-10 -1.277378232e-09 8.664497428e-12
t13 5.057732227e-10 -1.338078232e-09 1.473644974e-10
t12 -7.793137486e-10 1.245008739e-09 3.483644974e-10
t13 -7.651137486e-10 1.252008739e-09 2.539644974e-10
t13 -7.479137486e-10 1.328208739e-09 3.836644974e-10
t12 -8.755137486e-10 8.332087393e-10 6.236644974e-10
t13 -8.802137486e-10 8.140087393e-10 7.173644974e-10
t13 -8.896137486e-10 7.487087393e-10 5.811644974e-10
t12 -3.250137486e-10 1.226008739e-09 -3.176355026e-10
t13 -3.220137486e-10 1.317808739e-09 -2.907355026e-10
t13 -3.761137486e-10 1.226308739e-09 -3.985355026e-10
t12 -6.908137486e-10 4.675217679e-10 -4.593355026e-10
t13 -5.951137486e-10 4.667217679e-10 -4.599355026e-10
t13 -7.148137486e-10 4.155217679e-10 -3.826355026e-10
t12 -3.245137486e-10 1.079608739e-09 -9.403224739e-10
t13 -2.545137486e-10 1.036808739e-09 -9.895224739e-10
t13 -3.882137486e-10 1.105608739e-09 -1.006822474e-09
t12 3.064862514e-10 -3.039782321e-10 1.134064497e-09
t13 2.780862514e-10 -2.227782321e-10 1.092064497e-09
t13 3.953862514e-10 -2.854782321e-10 1.164264497e-09
t12 3.661862514e-10 9.527087393e-10 3.272644974e-10
t13 2.949862514e-10 8.902087393e-10 3.409644974e-10
t13 3.285862514e-10 1.037508739e-09 3.506644974e-10
t12 1.214273223e-09 7.144087393e-10 1.598644974e-10
t13 1.260573223e-09 7.619087393e-10 2.288644974e-10
t13 1.183173223e-09 7.827087393e-10 1.004644974e-10
t12 -2.751374858e-11 1.241708739e-09 -2.589355026e-10
t13 4.378625142e-11 1.269108739e-09 -3.166355026e-10
t13 -8.621374858e-11 1.191608739e-09 -3.155355026e-10
t12 -9.261374858e-11 -3.527782321e-10 -3.930355026e-10
t13 -8.381374858e-11 -3.342782321e-10 -4.865355026e-10
t13 -1.141374858e-11 -3.977782321e-10 -3.697355026e-10
t12 2.027862514e-10 1.168208739e-09 1.383864497e-09
t13 2.465862514e-10 1.220808739e-09 1.316964497e-09
t13 1.721862514e-10 1.090508739e-09 1.337064497e-09
t12 -1.263213749e-09 7.023087393e-10 -7.226224739e-10
t13 -1.352913749e-09 6.890087393e-10 -6.921224739e-10
t13 -1.209313749e-09 6.907087393e-10 -6.443224739e-10
t12 -5.396137486e-10 1.059908739e-09 1.229264497e-09
t13 -5.756137486e-10 1.012108739e-09 1.154564497e-09
t13 -4.814137486e-10 1.125108739e-09 1.190164497e-09
t12 -6.786137486e-10 -1.088778232e-09 -6.700224739e-10
t13 -6.717137486e-10 -1.140978232e-09 -5.900224739e-10
t13 -6.399137486e-10 -1.143878232e-09 -7.380224739e-10
t12 3.066862514e-10 -1.456578232e-09 -4.246355026e-10
t13 3.444862514e-10 -1.472578232e-09 -5.110355026e-10
t13 2.549862514e-10 1.520708739e-09 -4.061355026e-10
t12 -2.524137486e-10 -7.553782321e-10 -6.306224739e-10
t13 -2.561137486e-10 -6.960782321e-10 -5.556224739e-10
t13 -1.683137486e-10 -7.363782321e-10 -6.722224739e-10
t12 6.822732227e-10 -7.957782321e-10 -8.415224739e-10
t13 6.588732227e-10 -8.300782321e-10 -9.277224739e-10
t13 7.754732227e-10 -8.157782321e-10 -8.322224739e-10
t12 -4.918137486e-10 -1.113578232e-09 -1.176622474e-09
t13 -4.717137486e-10 -1.200178232e-09 -1.141022474e-09
t13 -5.059137486e-10 -1.128678232e-09 -1.270022474e-09
t12 -1.954137486e-10 -7.891782321e-10 -9.500224739e-10
t13 -1.839137486e-10 -7.005782321e-10 -9.842224739e-10
t13 -2.300137486e-10 -7.764782321e-10 -8.616224739e-10
t12 2.837862514e-10 -1.396478232e-09 -1.353522474e-09
t13 1.945862514e-10 -1.375478232e-09 -1.381222474e-09
t13 2.755862514e-10 -1.418078232e-09 -1.260622474e-09
t12 1.177862514e-10 -1.269378232e-09 1.336464497e-09
t13 1.246862514e-10 -1.364678232e-09 1.330464497e-09
t13 1.266862514e-10 -1.250478232e-09 1.429864497e-09
t12 1.780862514e-10 -1.126678232e-09 -1.203622474e-09
t13 2.423862514e-10 -1.166678232e-09 -1.144922474e-09
t13 1.114862514e-10 -1.090578232e-09 -1.145122474e-09
t12 5.195732227e-10 -1.041978232e-09 -9.224224739e-10
t13 5.497732227e-10 -1.033278232e-09 -8.320224739e-10
t13 5.963732227e-10 -1.072778232e-09 -9.705224739e-10
t12 -2.225137486e-10 7.950087393e-10 -7.905224739e-10
t13 -1.557137486e-10 7.645087393e-10 -8.519224739e-10
t13 -1.932137486e-10 8.824087393e-10 -7.647224739e-10
t12 -4.574137486e-10 -1.098178232e-09 -3.078355026e-10
t13 -4.564137486e-10 -1.063578232e-09 -3.970355026e-10
t13 -5.382137486e-10 -1.149278232e-09 -3.028355026e-10
t12 4.902732227e-10 1.069608739e-09 -9.440224739e-10
t13 5.041732227e-10 1.055008739e-09 -1.037522474e-09
t13 5.096732227e-10 1.162408739e-09 -9.310224739e-10
t12 1.692862514e-10 1.427217679e-10 -5.261355026e-10
t13 1.313862514e-10 2.041217679e-10 -5.891355026e-10
t13 2.452862514e-10 1.888217679e-10 -4.906355026e-10
t12 7.136732227e-10 -1.408678232e-09 -1.310022474e-09
t13 6.545732227e-10 -1.351878232e-09 -1.359522474e-09
t13 7.719732227e-10 -1.348278232e-09 -1.264022474e-09
t12 -5.144137486e-10 1.121508739e-09 -1.161222474e-09
t13 -5.988137486e-10 1.147908739e-09 -1.124722474e-09
t13 -5.082137486e-10 1.027908739e-09 -1.142222474e-09
t12 2.421862514e-10 3.841217679e-10 -2.414355026e-10
t13 2.537862514e-10 2.942217679e-10 -2.106355026e-10
t13 3.139862514e-10 3.979217679e-10 -3.031355026e-10
t12 6.868732227e-10 1.328708739e-09 -1.269022474e-09
t13 7.135732227e-10 1.409908739e-09 -1.312222474e-09
t13 6.323732227e-10 1.283908739e-09 -1.333822474e-09
t12 -3.905137486e-10 1.282176793e-11 -4.643355026e-10
t13 -4.681137486e-10 5.621767935e-12 -4.087355026e-10
t13 -3.832137486e-10 -7.277823207e-11 -5.065355026e-10
t12 6.708625142e-11 1.396908739e-09 -1.511022474e-09
t13 8.258625142e-11 1.378208739e-09 -1.418422474e-09
t13 -1.631374858e-11 1.354008739e-09 1.525364497e-09
t12 7.454732227e-10 -5.644782321e-10 -1.122922474e-09
t13 6.829732227e-10 -6.368782321e-10 -1.120522474e-09
t13 8.302732227e-10 -6.051782321e-10 -1.105222474e-09
t12 9.402732227e-10 -9.097782321e-10 -7.289224739e-10
t13 9.469732227e-10 -9.696782321e-10 -8.032224739e-10
t13 1.031073223e-09 -8.925782321e-10 -7.038224739e-10
t12 -6.781137486e-10 -5.083782321e-10 -6.703550257e-11
t13 -6.510137486e-10 -5.841782321e-10 -1.187355026e-10
t13 -6.766137486e-10 -4.353782321e-10 -1.289355026e-10
t12 6.018625142e-11 -1.377178232e-09 8.564497428e-12
t13 9.588625142e-11 -1.290678232e-09 2.836449743e-11
t13 1.204862514e-10 -1.413778232e-09 -5.623550257e-11
t12 -4.151137486e-10 1.356408739e-09 -1.278622474e-09
t13 -3.705137486e-10 1.344508739e-09 -1.362422474e-09
t13 -4.353137486e-10 1.267508739e-09 -1.249322474e-09
t12 -3.283137486e-10 2.479217679e-10 1.049364497e-09
t13 -4.220137486e-10 2.477217679e-10 1.068764497e-09
t13 -3.160137486e-10 1.739217679e-10 9.898644974e-10
t12 5.933732227e-10 1.096308739e-09 -1.235355026e-10
t13 5.612732227e-10 1.054608739e-09 -2.035355026e-10
t13 5.305732227e-10 1.070408739e-09 -5.613550257e-11
t12 3.738625142e-11 4.551217679e-10 -4.238355026e-10
t13 1.193862514e-10 4.200217679e-10 -3.891355026e-10
t13 -6.137485783e-13 5.040217679e-10 -3.508355026e-10
t12 -2.082137486e-10 -7.997823207e-11 1.290564497e-09
t13 -2.062137486e-10 -1.585782321e-10 1.345264497e-09
t13 -1.189137486e-10 -7.187823207e-11 1.256964497e-09
t12 1.038173223e-09 -2.811782321e-10 -1.064122474e-09
t13 1.084273223e-09 -2.033782321e-10 -1.095422474e-09
t13 1.102073223e-09 -3.519782321e-10 -1.072722474e-09
t12 -2.162137486e-10 -5.833782321e-10 -3.696355026e-10
t13 -1.804137486e-10 -4.968782321e-10 -3.897355026e-10
t13 -1.510137486e-10 -6.235782321e-10 -3.121355026e-10
t12 1.550862514e-10 9.154087393e-10 -4.673355026e-10
t13 8.008625142e-11 8.581087393e-10 -4.512355026e-10
t13 1.232862514e-10 1.003108739e-09 -4.462355026e-10
t12 -8.749137486e-10 1.216008739e-09 -1.415522474e-09
t13 -8.411137486e-10 1.126608739e-09 -1.410522474e-09
t13 -8.098137486e-10 1.263508739e-09 -1.467222474e-09
t12 -7.705137486e-10 1.000808739e-09 -8.321224739e-10
t13 -6.892137486e-10 9.510087393e-10 -8.406224739e-10
t13 -7.752137486e-10 1.023508739e-09 -7.392224739e-10
t12 2.879862514e-10 -1.263278232e-09 -9.739224739e-10
t13 3.047862514e-10 -1.318878232e-09 -8.978224739e-10
t13 3.237862514e-10 -1.177878232e-09 -9.496224739e-10
t12 -6.270137486e-10 1.281708739e-09 1.521464497e-09
t13 -5.927137486e-10 1.195508739e-09 1.497964497e-09
t13 -5.491137486e-10 1.335208739e-09 -1.519122474e-09
t12 3.075862514e-10 9.381087393e-10 1.060964497e-09
t13 2.898862514e-10 8.600087393e-10 1.113464497e-09
t13 2.568862514e-10 1.007408739e-09 1.103364497e-09
t12 -1.961374858e-11 -1.194478232e-09 -8.393224739e-10
t13 -9.051374858e-11 -1.210978232e-09 -7.772224739e-10
t13 5.648625142e-11 -1.175478232e-09 -7.845224739e-10
t12 -8.458137486e-10 1.384008739e-09 -1.189822474e-09
t13 -8.580137486e-10 1.289108739e-09 -1.192822474e-09
t13 -9.322137486e-10 1.418608739e-09 -1.167222474e-09
t12 -4.774137486e-10 -8.659782321e-10 -1.060022474e-09
t13 -4.096137486e-10 -8.839782321e-10 -9.949224739e-10
t13 -4.951137486e-10 -9.509782321e-10 -1.100422474e-09
t12 3.511862514e-10 8.809087393e-10 -7.312224739e-10
t13 2.973862514e-10 9.139087393e-10 -6.593224739e-10
t13 3.381862514e-10 9.441087393e-10 -8.019224739e-10
t12 -2.337137486e-10 1.092208739e-09 -3.913550257e-11
t13 -2.453137486e-10 1.073808739e-09 -1.323355026e-10
t13 -2.090137486e-10 1.008008739e-09 -9.355025720e-13
t12 2.359862514e-10 1.119608739e-09 -1.204722474e-09
t13 2.890862514e-10 1.188008739e-09 -1.163822474e-09
t13 2.932862514e-10 1.043008739e-09 -1.207222474e-09
t12 6.736732227e-10 1.000608739e-09 -7.026224739e-10
t13 6.559732227e-10 1.094508739e-09 -6.983224739e-10
t13 6.224732227e-10 9.698087393e-10 -7.774224739e-10
t12 6.473732227e-10 -8.380782321e-10 -1.130822474e-09
t13 5.712732227e-10 -8.873782321e-10 -1.161322474e-09
t13 7.226732227e-10 -8.890782321e-10 -1.160722474e-09
t12 -6.202137486e-10 -8.122782321e-10 -7.042224739e-10
t13 -6.416137486e-10 -9.037782321e-10 -7.221224739e-10
t13 -5.761137486e-10 -8.140782321e-10 -6.192224739e-10
t12 -6.335137486e-10 -1.513878232e-09 -1.261122474e-09
t13 -5.537137486e-10 1.489108739e-09 -1.256422474e-09
t13 -7.034137486e-10 1.482008739e-09 -1.234722474e-09
t12 -4.411137486e-10 -5.883782321e-10 -8.596224739e-10
t13 -4.652137486e-10 -5.124782321e-10 -8.065224739e-10
t13 -5.132137486e-10 -6.501782321e-10 -8.474224739e-10
t12 -5.678137486e-10 -3.688782321e-10 -7.467224739e-10
t13 -5.531137486e-10 -3.409782321e-10 -6.564224739e-10
t13 -5.773137486e-10 -2.872782321e-10 -7.959224739e-10
t12 -3.241137486e-10 1.330908739e-09 1.526964497e-09
t13 -2.766137486e-10 1.400508739e-09 1.481564497e-09
t13 -2.755137486e-10 1.251108739e-09 1.505964497e-09
t12 4.340732227e-10 1.338908739e-09 -1.098422474e-09
t13 5.220732227e-10 1.352308739e-09 -1.133822474e-09
t13 3.897732227e-10 1.422708739e-09 -1.111922474e-09
t12 -5.055137486e-10 1.042808739e-09 4.774644974e-10
t13 -4.167137486e-10 1.064608739e-09 5.057644974e-10
t13 -5.381137486e-10 1.123208739e-09 4.368644974e-10
t12 9.497732227e-10 -1.278678232e-09 2.085644974e-10
t13 9.064732227e-10 -1.341978232e-09 2.659644974e-10
t13 9.794732227e-10 -1.209378232e-09 2.674644974e-10
t12 1.027173223e-09 1.225408739e-09 7.527644974e-10
t13 1.098173223e-09 1.214108739e-09 6.895644974e-10
t13 1.019973223e-09 1.320108739e-09 7.641644974e-10
t12 -4.601374858e-11 -1.012378232e-09 -1.063822474e-09
t13 -4.181374858e-11 -1.074578232e-09 -9.911224739e-10
t13 -9.841374858e-11 -9.397782321e-10 -1.030122474e-09
t12 6.308625142e-11 1.780217679e-10 -1.384522474e-09
t13 1.552862514e-10 1.871217679e-10 -1.360122474e-09
t13 4.678625142e-11 2.509217679e-10 -1.444322474e-09
t12 4.728732227e-10 -1.457678232e-09 8.435644974e-10
t13 4.046732227e-10 -1.456178232e-09 9.107644974e-10
t13 4.444732227e-10 -1.525378232e-09 7.820644974e-10
t12 -4.987137486e-10 -7.587823207e-11 -8.865224739e-10
t13 -4.286137486e-10 -2.047823207e-11 -9.209224739e-10
t13 -5.518137486e-10 -1.697823207e-11 -8.330224739e-10
t12 7.356732227e-10 -8.433782321e-10 1.197964497e-09
t13 7.507732227e-10 -7.606782321e-10 1.243664497e-09
t13 6.543732227e-10 -8.294782321e-10 1.149364497e-09
t12 -2.224137486e-10 9.931087393e-10 -1.489722474e-09
t13 -1.750137486e-10 1.069108739e-09 -1.523622474e-09
t13 -1.796137486e-10 9.734087393e-10 -1.406422474e-09
t12 4.093732227e-10 -1.511478232e-09 -8.570224739e-10
t13 4.659732227e-10 -1.484578232e-09 -9.294224739e-10
t13 4.672732227e-10 1.496408739e-09 -7.977224739e-10
t12 -1.259613749e-09 1.266808739e-09 1.017664497e-09
t13 -1.209313749e-09 1.306308739e-09 9.464644974e-10
t13 -1.291013749e-09 1.341308739e-09 1.068964497e-09
t12 1.849862514e-10 -1.182578232e-09 -6.671224739e-10
t13 2.699862514e-10 -1.138678232e-09 -6.675224739e-10
t13 1.866862514e-10 -1.237478232e-09 -5.887224739e-10
t12 8.133732227e-10 -1.002678232e-09 1.463364497e-09
t13 7.543732227e-10 -9.296782321e-10 1.481864497e-09
t13 8.089732227e-10 -1.013578232e-09 1.368364497e-09
t12 -6.985137486e-10 -1.524778232e-09 1.450264497e-09
t13 -7.368137486e-10 -1.444478232e-09 1.485564497e-09
t13 -7.226137486e-10 1.463108739e-09 1.513364497e-09
t12 -9.122137486e-10 8.457087393e-10 8.800644974e-10
t13 -8.881137486e-10 7.899087393e-10 9.540644974e-10
t13 -9.342137486e-10 9.300087393e-10 9.197644974e-10
t12 9.680732227e-10 -1.002578232e-09 -9.883224739e-10
t13 9.070732227e-10 -1.066078232e-09 -1.026022474e-09
t13 1.048773223e-09 -1.052078232e-09 -9.746224739e-10
t12 1.039573223e-09 9.861087393e-10 -1.215922474e-09
t13 1.125173223e-09 9.649087393e-10 -1.178622474e-09
t13 9.846732227e-10 1.006008739e-09 -1.140122474e-09
t12 4.870732227e-10 -1.021878232e-09 -1.249522474e-09
t13 3.931732227e-10 -1.039478232e-09 -1.243922474e-09
t13 5.200732227e-10 -1.087178232e-09 -1.311222474e-09
t12 6.273732227e-10 -1.183778232e-09 -1.434822474e-09
t13 6.997732227e-10 -1.129378232e-09 -1.465722474e-09
t13 5.538732227e-10 -1.160378232e-09 -1.491422474e-09
t12 1.135862514e-10 1.451108739e-09 1.914644974e-10
t13 7.408625142e-11 1.527108739e-09 1.486644974e-10
t13 1.114862514e-10 1.382408739e-09 1.248644974e-10
t12 8.858732227e-10 1.442108739e-09 -5.101355026e-10
t13 8.769732227e-10 -1.520078232e-09 -4.922355026e-10
t13 9.799732227e-10 1.425508739e-09 -5.046355026e-10
t12 7.798732227e-10 1.150908739e-09 9.260644974e-10
t13 8.506732227e-10 1.196208739e-09 8.801644974e-10
t13 7.066732227e-10 1.212608739e-09 9.241644974e-10
t12 6.653732227e-10 5.105217679e-10 -1.469822474e-09
t13 5.986732227e-10 4.420217679e-10 -1.471622474e-09
t13 6.363732227e-10 5.740217679e-10 1.520464497e-09
t12 7.968625142e-11 -1.196078232e-09 -1.458822474e-09
t13 1.586251422e-12 -1.244778232e-09 -1.432522474e-09
t13 1.366862514e-10 -1.198678232e-09 -1.382022474e-09
t12 5.929732227e-10 1.077408739e-09 1.189964497e-09
t13 5.487732227e-10 1.032808739e-09 1.117664497e-09
t13 5.300732227e-10 1.143208739e-09 1.219564497e-09
t12 8.005732227e-10 9.354087393e-10 7.864497428e-12
t13 8.959732227e-10 9.431087393e-10 1.116449743e-11
t13 7.722732227e-10 1.009908739e-09 -4.513550257e-11
t12 -4.028137486e-10 -1.398678232e-09 -1.425622474e-09
t13 -4.617137486e-10 -1.323678232e-09 -1.434622474e-09
t13 -4.575137486e-10 -1.467678232e-09 -1.387922474e-09
t12 2.274862514e-10 -3.789782321e-10 1.491864497e-09
t13 2.864862514e-10 -3.479782321e-10 -1.495322474e-09
t13 2.168862514e-10 -3.038782321e-10 1.433464497e-09
t12 -7.822137486e-10 1.358217679e-10 -4.745355026e-10
t13 -7.725137486e-10 2.260217679e-10 -4.439355026e-10
t13 -7.141137486e-10 1.257217679e-10 -5.411355026e-10
t12 -3.791137486e-10 -8.765782321e-10 -1.174355026e-10
t13 -4.449137486e-10 -8.254782321e-10 -1.646355026e-10
t13 -3.848137486e-10 -9.641782321e-10 -1.555355026e-10
t12 -6.784137486e-10 6.274087393e-10 1.177464497e-09
t13 -6.486137486e-10 6.564087393e-10 1.091264497e-09
t13 -7.658137486e-10 6.652087393e-10 1.186664497e-09
t12 -1.760137486e-10 1.841217679e-10 1.430564497e-09
t13 -1.026137486e-10 1.391217679e-10 1.388664497e-09
t13 -2.536137486e-10 1.500217679e-10 1.385964497e-09
t12 -4.367137486e-10 5.388217679e-10 -1.172355026e-10
t13 -4.846137486e-10 6.210217679e-10 -1.076355026e-10
t13 -4.045137486e-10 5.193217679e-10 -2.923550257e-11
t12 -6.560137486e-10 -3.447823207e-11 8.097644974e-10
t13 -6.060137486e-10 -2.017823207e-11 7.293644974e-10
t13 -5.958137486e-10 -8.157823207e-11 8.673644974e-10
t12 -1.010113749e-09 8.808087393e-10 1.573644974e-10
t13 -9.840137486e-10 7.932087393e-10 1.290644974e-10
t13 -9.281137486e-10 9.235087393e-10 1.819644974e-10
t12 -8.483137486e-10 9.864087393e-10 3.360644974e-10
t13 -8.316137486e-10 1.079408739e-09 3.516644974e-10
t13 -8.643137486e-10 9.499087393e-10 4.230644974e-10
t12 -6.009137486e-10 -2.347823207e-11 -2.638355026e-10
t13 -6.733137486e-10 2.542176793e-11 -3.027355026e-10
t13 -6.088137486e-10 -7.278232065e-12 -1.698355026e-10
t12 -4.639137486e-10 6.227087393e-10 1.394364497e-09
t13 -4.027137486e-10 6.013087393e-10 1.323864497e-09
t13 -5.382137486e-10 6.636087393e-10 1.349964497e-09
t12 8.108625142e-11 -2.927782321e-10 2.663644974e-10
t13 6.788625142e-11 -2.343782321e-10 3.410644974e-10
t13 2.786251422e-12 -3.477782321e-10 2.646644974e-10
t12 -5.224137486e-10 8.326087393e-10 -7.233550257e-11
t13 -5.227137486e-10 8.875087393e-10 6.164497428e-12
t13 -4.777137486e-10 8.855087393e-10 -1.384355026e-10
t12 -4.330137486e-10 -1.420278232e-09 1.075764497e-09
t13 -4.355137486e-10 -1.402378232e-09 9.816644974e-10
t13 -3.450137486e-10 -1.454778232e-09 1.091264497e-09
t12 1.525862514e-10 -6.910782321e-10 3.898644974e-10
t13 1.408862514e-10 -7.044782321e-10 4.838644974e-10
t13 1.969862514e-10 -6.064782321e-10 3.830644974e-10
t12 5.252732227e-10 1.261217679e-10 8.508644974e-10
t13 4.428732227e-10 8.972176793e-11 8.830644974e-10
t13 5.450732227e-10 7.492176793e-11 7.724644974e-10
t12 6.153732227e-10 5.345217679e-10 1.317964497e-09
t13 6.466732227e-10 4.441217679e-10 1.319264497e-09
t13 5.730732227e-10 5.440217679e-10 1.232564497e-09
t12 5.375732227e-10 -5.881782321e-10 1.457764497e-09
t13 4.490732227e-10 -5.561782321e-10 1.440364497e-09
t13 5.254732227e-10 -6.796782321e-10 1.483264497e-09
t12 6.299732227e-10 3.991217679e-10 -1.954355026e-10
t13 5.867732227e-10 4.432217679e-10 -2.685355026e-10
t13 6.686732227e-10 4.701217679e-10 -1.441355026e-10
t12 -8.879137486e-10 -4.727782321e-10 1.470644974e-10
t13 -9.767137486e-10 -5.072782321e-10 1.564644974e-10
t13 -8.617137486e-10 -4.978782321e-10 5.846449743e-11
t12 -8.361374858e-11 1.012217679e-10 -7.234224739e-10
t13 1.186251422e-12 5.732176793e-11 -7.310224739e-10
t13 -1.294137486e-10 7.902176793e-11 -8.045224739e-10
t12 -6.406137486e-10 -7.957823207e-11 -1.035502572e-12
t13 -6.879137486e-10 -1.627782321e-10 6.644974280e-13
t13 -5.492137486e-10 -1.036782321e-10 1.406449743e-11
t12 -3.294137486e-10 -2.716782321e-10 8.028644974e-10
t13 -3.769137486e-10 -2.732782321e-10 7.197644974e-10
t13 -2.386137486e-10 -2.902782321e-10 7.789644974e-10
t12 -4.812137486e-10 2.681217679e-10 -1.528355026e-10
t13 -4.505137486e-10 2.360217679e-10 -2.376355026e-10
t13 -4.537137486e-10 3.598217679e-10 -1.505355026e-10
t12 -3.772137486e-10 -1.159782321e-10 7.866449743e-11
t13 -3.824137486e-10 -1.943782321e-10 1.333644974e-10
t13 -2.854137486e-10 -1.112782321e-10 5.196449743e-11
t12 6.955732227e-10 -1.100782321e-10 -1.431622474e-09
t13 7.108732227e-10 -7.317823207e-11 -1.518522474e-09
t13 6.766732227e-10 -3.427823207e-11 -1.376322474e-09
t12 -1.109137486e-10 9.462087393e-10 6.947644974e-10
t13 -1.482137486e-10 8.855087393e-10 6.308644974e-10
t13 -2.531374858e-11 9.694087393e-10 6.587644974e-10
t12 7.272732227e-10 2.425217679e-10 1.010964497e-09
t13 6.631732227e-10 1.951217679e-10 9.580644974e-10
t13 7.335732227e-10 3.286217679e-10 9.696644974e-10
t12 -2.226137486e-10 -2.516782321e-10 -1.727355026e-10
t13 -1.581137486e-10 -1.893782321e-10 -1.393355026e-10
t13 -1.901137486e-10 -2.757782321e-10 -2.594355026e-10
t12 -1.015137486e-10 -7.822782321e-10 -1.732355026e-10
t13 -9.081374858e-11 -8.478782321e-10 -2.421355026e-10
t13 -1.849137486e-10 -8.044782321e-10 -1.317355026e-10
t12 5.427732227e-10 3.621767935e-12 -7.044224739e-10
t13 4.971732227e-10 -7.537823207e-11 -6.755224739e-10
t13 6.338732227e-10 -2.377823207e-11 -7.152224739e-10
t12 -6.651374858e-11 -3.452782321e-10 -1.277022474e-09
t13 -4.001374858e-11 -2.649782321e-10 -1.321822474e-09
t13 -1.310137486e-10 -3.851782321e-10 -1.335322474e-09
t12 -6.397137486e-10 1.620217679e-10 -7.640224739e-10
t13 -7.283137486e-10 1.976217679e-10 -7.703224739e-10
t13 -5.956137486e-10 1.932217679e-10 -8.430224739e-10
t12 -6.625137486e-10 -2.802782321e-10 2.128644974e-10
t13 -7.220137486e-10 -3.470782321e-10 1.787644974e-10
t13 -5.827137486e-10 -3.282782321e-10 2.347644974e-10
t12 1.132862514e-10 1.493217679e-10 1.044644974e-10
t13 1.419862514e-10 5.902176793e-11 1.174644974e-10
t13 1.057862514e-10 1.587217679e-10 9.464497428e-12
t12 8.158625142e-11 8.802176793e-11 1.339864497e-09
t13 8.928625142e-11 2.482176793e-11 1.268464497e-09
t13 1.604862514e-10 1.417217679e-10 1.333064497e-09
t12 2.659862514e-10 -9.092782321e-10 1.192164497e-09
t13 2.329862514e-10 -9.298782321e-10 1.279564497e-09
t13 2.219862514e-10 -9.717782321e-10 1.134564497e-09
t12 -8.221374858e-11 8.356087393e-10 -3.188355026e-10
t13 -1.641137486e-10 8.849087393e-10 -3.233355026e-10
t13 -1.059137486e-10 7.534087393e-10 -2.759355026e-10
t12 1.499862514e-10 -7.864782321e-10 -5.013550257e-11
t13 8.268625142e-11 -7.897782321e-10 -1.181355026e-10
t13 1.888862514e-10 -6.993782321e-10 -5.903550257e-11
t12 -1.454313749e-09 1.039608739e-09 1.000364497e-09
t13 1.527773223e-09 1.060208739e-09 1.057964497e-09
t13 -1.384113749e-09 1.097708739e-09 1.029564497e-09
t12 -1.710137486e-10 5.370217679e-10 -2.197355026e-10
t13 -2.657137486e-10 5.257217679e-10 -2.121355026e-10
t13 -1.356137486e-10 4.961217679e-10 -1.407355026e-10
t12 -2.183137486e-10 4.126217679e-10 3.208644974e-10
t13 -1.351137486e-10 3.653217679e-10 3.223644974e-10
t13 -2.814137486e-10 3.513217679e-10 3.585644974e-10
t12 1.291862514e-10 4.000217679e-10 2.123644974e-10
t13 1.228862514e-10 3.048217679e-10 2.042644974e-10
t13 1.216862514e-10 4.165217679e-10 3.063644974e-10
t12 3.798625142e-11 -1.105782321e-10 1.165464497e-09
t13 7.088625142e-11 -8.127823207e-11 1.080464497e-09
t13 1.028625142e-11 -2.009782321e-10 1.150664497e-09
t12 2.304862514e-10 -9.257823207e-11 -3.330355026e-10
t13 3.208862514e-10 -6.207823207e-11 -3.262355026e-10
t13 1.891862514e-10 -3.187823207e-11 -3.944355026e-10
t12 -8.236137486e-10 4.991217679e-10 8.386644974e-10
t13 -7.513137486e-10 5.614217679e-10 8.454644974e-10
t13 -7.817137486e-10 4.160217679e-10 8.164644974e-10
t12 5.102732227e-10 -8.449782321e-10 -1.502422474e-09
t13 5.239732227e-10 -8.695782321e-10 -1.410922474e-09
t13 4.262732227e-10 -8.846782321e-10 -1.525622474e-09
t12 3.373862514e-10 2.692217679e-10 1.268964497e-09
t13 3.212862514e-10 3.156217679e-10 1.186764497e-09
t13 2.925862514e-10 3.216217679e-10 1.335264497e-09
t12 1.135373223e-09 -7.127823207e-11 1.205464497e-09
t13 1.117973223e-09 9.921767935e-12 1.158064497e-09
t13 1.170273223e-09 -1.308782321e-10 1.139164497e-09
t12 9.032732227e-10 -3.737782321e-10 1.487164497e-09
t13 9.118732227e-10 -2.809782321e-10 1.508964497e-09
t13 9.106732227e-10 -4.189782321e-10 -1.484622474e-09
t12 -1.035137486e-10 1.667217679e-10 6.310644974e-10
t13 -1.286137486e-10 1.254217679e-10 5.484644974e-10
t13 -1.661137486e-10 2.383217679e-10 6.420644974e-10
t12 -1.087713749e-09 -8.807823207e-11 -2.426355026e-10
t13 -1.039413749e-09 -1.062782321e-10 -3.232355026e-10
t13 -1.097213749e-09 -1.735782321e-10 -2.006355026e-10
t12 -1.282713749e-09 3.576217679e-10 9.900644974e-10
t13 -1.189113749e-09 3.507217679e-10 1.008764497e-09
t13 -1.307413749e-09 2.707217679e-10 9.584644974e-10
t12 -1.171137486e-10 8.162176793e-11 -3.651355026e-10
t13 -2.082137486e-10 5.252176793e-11 -3.635355026e-10
t13 -9.501374858e-11 8.622176793e-11 -4.581355026e-10
t12 -5.184137486e-10 2.823217679e-10 1.085644974e-10
t13 -4.919137486e-10 2.596217679e-10 1.946449743e-11
t13 -4.802137486e-10 3.687217679e-10 1.237644974e-10
t12 -9.284137486e-10 2.518217679e-10 -7.815224739e-10
t13 -9.945137486e-10 2.766217679e-10 -7.169224739e-10
t13 -9.786137486e-10 2.151217679e-10 -8.543224739e-10
t12 -1.029113749e-09 1.077908739e-09 1.030864497e-09
t13 -1.025713749e-09 1.072508739e-09 1.126364497e-09
t13 -1.088513749e-09 1.150908739e-09 1.013164497e-09
t12 7.099732227e-10 3.120217679e-10 6.804644974e-10
t13 6.243732227e-10 2.695217679e-10 6.752644974e-10
t13 7.487732227e-10 2.987217679e-10 5.940644974e-10
t12 2.353862514e-10 -5.141782321e-10 -1.600355026e-10
t13 3.221862514e-10 -5.519782321e-10 -1.745355026e-10
t13 1.823862514e-10 -5.474782321e-10 -2.324355026e-10
t12 9.818625142e-11 -5.452782321e-10 -3.920355026e-10
t13 1.474862514e-10 -5.167782321e-10 -4.690355026e-10
t13 1.008862514e-10 -6.408782321e-10 -3.958355026e-10
t12 4.390732227e-10 1.529217679e-10 -1.820355026e-10
t13 4.822732227e-10 9.872176793e-11 -2.481355026e-10
t13 5.063732227e-10 2.150217679e-10 -1.542355026e-10
t12 -5.517137486e-10 1.439217679e-10 6.083644974e-10
t13 -5.734137486e-10 1.602217679e-10 5.165644974e-10
t13 -5.542137486e-10 2.303217679e-10 6.493644974e-10
t12 1.018862514e-10 7.395087393e-10 8.046449743e-11
t13 1.292862514e-10 7.878087393e-10 2.464497428e-12
t13 1.675862514e-10 6.706087393e-10 9.036449743e-11
t12 1.254862514e-10 4.580217679e-10 4.975644974e-10
t13 1.113862514e-10 5.028217679e-10 5.809644974e-10
t13 2.163862514e-10 4.284217679e-10 5.011644974e-10
t12 1.411773223e-09 3.981217679e-10 1.210564497e-09
t13 1.476773223e-09 3.280217679e-10 1.205864497e-09
t13 1.328073223e-09 3.544217679e-10 1.194764497e-09
t12 4.842732227e-10 7.422176793e-11 1.436364497e-09
t13 5.770732227e-10 5.252176793e-11 1.445064497e-09
t13 4.810732227e-10 1.373217679e-10 1.364564497e-09
t12 -1.406813749e-09 -7.917782321e-10 -7.244224739e-10
t13 -1.338713749e-09 -7.245782321e-10 -7.214224739e-10
t13 -1.388413749e-09 -8.410782321e-10 -8.044224739e-10
t12 3.166862514e-10 -1.473378232e-09 -1.523355026e-10
t13 2.898862514e-10 -1.490178232e-09 -2.426355026e-10
t13 4.000862514e-10 -1.519378232e-09 -1.430355026e-10
t12 -1.398137486e-10 4.209217679e-10 7.431644974e-10
t13 -6.701374858e-11 3.723217679e-10 7.818644974e-10
t13 -9.881374858e-11 4.969217679e-10 7.019644974e-10
t12 -7.713748578e-12 -3.766782321e-10 1.107064497e-09
t13 -3.781374858e-11 -4.606782321e-10 1.072464497e-09
t13 8.138625142e-11 -3.938782321e-10 1.137564497e-09
t12 5.140732227e-10 5.616217679e-10 4.485644974e-10
t13 5.638732227e-10 5.055217679e-10 3.889644974e-10
t13 4.297732227e-10 5.740217679e-10 4.049644974e-10
t12 4.348732227e-10 6.494087393e-10 6.816449743e-11
t13 4.353732227e-10 6.422087393e-10 -2.733550257e-11
t13 4.893732227e-10 5.766087393e-10 9.796449743e-11
t12 -6.232137486e-10 1.971217679e-10 3.494644974e-10
t13 -5.955137486e-10 2.026217679e-10 2.580644974e-10
t13 -6.459137486e-10 2.870217679e-10 3.731644974e-10
t12 -2.700137486e-10 4.841217679e-10 -8.646224739e-10
t13 -2.475137486e-10 4.313217679e-10 -7.880224739e-10
t13 -2.623137486e-10 5.746217679e-10 -8.344224739e-10
t12 -8.535137486e-10 7.713087393e-10 -3.447355026e-10
t13 -8.520137486e-10 7.523087393e-10 -2.509355026e-10
t13 -8.342137486e-10 6.873087393e-10 -3.865355026e-10
t12 -5.053137486e-10 -2.901782321e-10 -2.259355026e-10
t13 -4.147137486e-10 -2.740782321e-10 -1.996355026e-10
t13 -5.409137486e-10 -2.031782321e-10 -2.436355026e-10
t12 -1.504137486e-10 -6.207782321e-10 1.006764497e-09
t13 -1.220137486e-10 -7.067782321e-10 1.037564497e-09
t13 -2.075137486e-10 -5.880782321e-10 1.076264497e-09
t12 -3.981374858e-11 -1.265782321e-10 4.711644974e-10
t13 -1.297137486e-10 -1.443782321e-10 4.986644974e-10
t13 -4.601374858e-11 -4.637823207e-11 4.192644974e-10
t12 1.206573223e-09 1.086908739e-09 -7.189224739e-10
t13 1.244073223e-09 1.095408739e-09 -6.313224739e-10
t13 1.158273223e-09 1.004308739e-09 -7.165224739e-10
t12 4.770732227e-10 -1.309782321e-10 2.923644974e-10
t13 4.405732227e-10 -9.047823207e-11 2.137644974e-10
t13 4.076732227e-10 -1.231782321e-10 3.578644974e-10
t12 -5.246137486e-10 9.062087393e-10 -8.302224739e-10
t13 -4.709137486e-10 8.481087393e-10 -7.763224739e-10
t13 -4.632137486e-10 9.718087393e-10 -8.633224739e-10
t12 -7.244137486e-10 9.132176793e-11 1.216864497e-09
t13 -7.493137486e-10 1.178217679e-10 1.305364497e-09
t13 -7.819137486e-10 1.742176793e-11 1.196864497e-09
t12 -1.649137486e-10 2.153217679e-10 -1.203122474e-09
t13 -8.771374858e-11 2.065217679e-10 -1.259022474e-09
t13 -2.317137486e-10 1.615217679e-10 -1.245722474e-09
t12 -6.549137486e-10 2.970217679e-10 -1.272722474e-09
t13 -5.799137486e-10 2.800217679e-10 -1.329722474e-09
t13 -6.735137486e-10 3.902217679e-10 -1.284822474e-09
t12 -2.591374858e-11 4.313217679e-10 -1.353550257e-11
t13 1.798625142e-11 4.603217679e-10 6.646449743e-11
t13 1.928625142e-11 3.504217679e-10 -3.763550257e-11
t12 -4.339137486e-10 3.204217679e-10 -4.444355026e-10
t13 -3.414137486e-10 3.269217679e-10 -4.681355026e-10
t13 -4.610137486e-10 2.346217679e-10 -4.771355026e-10
t12 -8.725137486e-10 -3.597782321e-10 -2.238355026e-10
t13 -8.923137486e-10 -4.448782321e-10 -2.630355026e-10
t13 -8.565137486e-10 -3.021782321e-10 -2.985355026e-10
t12 2.364862514e-10 -1.106782321e-10 1.484664497e-09
t13 3.218862514e-10 -7.057823207e-11 1.468764497e-09
t13 1.743862514e-10 -5.367823207e-11 1.439164497e-09
t12 2.587862514e-10 -4.987782321e-10 -6.907224739e-10
t13 2.155862514e-10 -5.312782321e-10 -7.697224739e-10
t13 3.406862514e-10 -5.479782321e-10 -6.861224739e-10
t12 -3.885137486e-10 -1.510782321e-10 -1.163322474e-09
t13 -3.048137486e-10 -1.045782321e-10 -1.161322474e-09
t13 -4.417137486e-10 -1.020782321e-10 -1.226022474e-09
t12 2.994862514e-10 -4.235782321e-10 4.148644974e-10
t13 3.800862514e-10 -3.834782321e-10 3.822644974e-10
t13 2.374862514e-10 -4.147782321e-10 3.424644974e-10
t12 3.400862514e-10 7.465087393e-10 -1.329322474e-09
t13 3.633862514e-10 6.813087393e-10 -1.395422474e-09
t13 2.458862514e-10 7.350087393e-10 -1.316422474e-09
t12 -1.172413749e-09 -3.278232065e-12 -7.152224739e-10
t13 -1.258213749e-09 3.902176793e-11 -7.131224739e-10
t13 -1.124913749e-09 4.212176793e-11 -7.848224739e-10
t12 5.703732227e-10 -3.829782321e-10 -9.899224739e-10
t13 6.210732227e-10 -4.458782321e-10 -1.041322474e-09
t13 5.097732227e-10 -3.438782321e-10 -1.052922474e-09
t12 6.286251422e-12 -1.421378232e-09 -6.350224739e-10
t13 4.286251422e-12 -1.366278232e-09 -5.568224739e-10
t13 -8.513748578e-12 -1.360578232e-09 -7.075224739e-10
t12 2.761862514e-10 2.089217679e-10 -1.003422474e-09
t13 2.185862514e-10 2.143217679e-10 -9.272224739e-10
t13 2.253862514e-10 1.604217679e-10 -1.068522474e-09
t12 1.090862514e-10 2.862176793e-11 -1.145622474e-09
t13 2.758625142e-11 1.982176793e-11 -1.194922474e-09
t13 1.029862514e-10 -3.797823207e-11 -1.077122474e-09
t12 1.138625142e-11 -6.099782321e-10 -1.204022474e-09
t13 2.598625142e-11 -5.268782321e-10 -1.249122474e-09
t13 -8.211374858e-11 -6.273782321e-10 -1.215122474e-09
t12 2.898625142e-11 1.138408739e-09 -5.864224739e-10
t13 -5.341374858e-11 1.098708739e-09 -6.146224739e-10
t13 2.848625142e-11 1.225408739e-09 -6.263224739e-10
t12 7.062732227e-10 1.369217679e-10 -1.287122474e-09
t13 7.988732227e-10 1.154217679e-10 -1.298622474e-09
t13 7.067732227e-10 2.225217679e-10 -1.244222474e-09
t12 -2.461137486e-10 -2.576782321e-10 -8.840224739e-10
t13 -1.775137486e-10 -2.095782321e-10 -9.302224739e-10
t13 -3.245137486e-10 -2.037782321e-10 -8.948224739e-10
t12 1.728862514e-10 -9.333782321e-10 1.472864497e-09
t13 1.735862514e-10 -8.398782321e-10 1.452064497e-09
t13 8.508625142e-11 -9.496782321e-10 1.507164497e-09
t12 -2.741374858e-11 -6.804782321e-10 -7.149224739e-10
t13 4.158625142e-11 -7.434782321e-10 -7.354224739e-10
t13 8.686251422e-12 -5.958782321e-10 -7.414224739e-10
t12 3.567862514e-10 3.690217679e-10 -1.415422474e-09
t13 3.037862514e-10 4.039217679e-10 -1.343722474e-09
t13 3.703862514e-10 2.770217679e-10 -1.392722474e-09
t12 1.217862514e-10 -1.041782321e-10 -7.565224739e-10
t13 1.856862514e-10 -5.417823207e-11 -7.058224739e-10
t13 1.720862514e-10 -1.405782321e-10 -8.293224739e-10
t12 1.471862514e-10 -6.424782321e-10 -9.382224739e-10
t13 1.021862514e-10 -6.038782321e-10 -1.013322474e-09
t13 1.532862514e-10 -7.356782321e-10 -9.592224739e-10
t12 -5.515137486e-10 -3.903782321e-10 -1.147422474e-09
t13 -4.896137486e-10 -3.176782321e-10 -1.140922474e-09
t13 -5.528137486e-10 -4.124782321e-10 -1.240622474e-09
t12 -2.211374858e-11 6.892087393e-10 -9.481224739e-10
t13 -4.511374858e-11 6.303087393e-10 -1.019922474e-09
t13 5.718625142e-11 6.512087393e-10 -9.103224739e-10
t12 -2.240137486e-10 -1.208678232e-09 -6.635224739e-10
t13 -2.633137486e-10 -1.121378232e-09 -6.643224739e-10
t13 -2.977137486e-10 -1.267978232e-09 -6.485224739e-10
t12 8.015732227e-10 8.855087393e-10 -3.926355026e-10
t13 7.378732227e-10 9.313087393e-10 -4.475355026e-10
t13 7.488732227e-10 8.269087393e-10 -3.384355026e-10
t12 2.739862514e-10 -2.332782321e-10 -9.526224739e-10
t13 3.454862514e-10 -2.836782321e-10 -9.137224739e-10
t13 3.130862514e-10 -1.914782321e-10 -1.029322474e-09
t12 1.198625142e-11 -2.239782321e-10 -1.019522474e-09
t13 9.618625142e-11 -2.656782321e-10 -1.001222474e-09
t13 -2.021374858e-11 -2.684782321e-10 -1.098022474e-09
t12 -2.068137486e-10 4.872217679e-10 -1.135722474e-09
t13 -2.051137486e-10 4.606217679e-10 -1.043822474e-09
t13 -1.868137486e-10 4.072217679e-10 -1.184222474e-09
t12 -6.941137486e-10 -1.514782321e-10 -1.078222474e-09
t13 -6.830137486e-10 -2.236782321e-10 -1.140122474e-09
t13 -6.226137486e-10 -1.622782321e-10 -1.015622474e-09
t12 -5.600137486e-10 1.011708739e-09 1.478464497e-09
t13 -5.475137486e-10 1.016708739e-09 1.383764497e-09
t13 -4.729137486e-10 1.026808739e-09 1.515064497e-09
t12 2.681862514e-10 4.470217679e-10 -1.168722474e-09
t13 3.523862514e-10 4.821217679e-10 -1.139522474e-09
t13 2.507862514e-10 3.739217679e-10 -1.109422474e-09
t12 -9.502137486e-10 7.425087393e-10 -8.930224739e-10
t13 -8.862137486e-10 6.810087393e-10 -8.570224739e-10
t13 -9.215137486e-10 8.282087393e-10 -8.615224739e-10
t12 -1.801374858e-11 2.061217679e-10 -1.553355026e-10
t13 -6.711374858e-11 2.870217679e-10 -1.410355026e-10
t13 -5.281374858e-11 1.712217679e-10 -2.373355026e-10
t12 -9.298137486e-10 4.069217679e-10 -1.120222474e-09
t13 -8.757137486e-10 4.163217679e-10 -1.041822474e-09
t13 -9.163137486e-10 3.163217679e-10 -1.147922474e-09
t12 -2.718137486e-10 6.102176793e-11 -1.394422474e-09
t13 -3.486137486e-10 2.562176793e-11 -1.439322474e-09
t13 -2.188137486e-10 9.952176793e-11 -1.464222474e-09
t12 -5.085137486e-10 -8.257823207e-11 -1.523222474e-09
t13 -5.820137486e-10 -1.260782321e-10 1.489464497e-09
t13 -5.482137486e-10 -3.497823207e-11 -1.450322474e-09
t12 7.392732227e-10 5.355217679e-10 -1.215522474e-09
t13 7.114732227e-10 5.157217679e-10 -1.304922474e-09
t13 7.828732227e-10 6.205217679e-10 -1.222122474e-09
t12 -1.916137486e-10 -1.492678232e-09 1.465364497e-09
t13 -1.085137486e-10 -1.471178232e-09 1.507764497e-09
t13 -2.584137486e-10 -1.458578232e-09 1.524864497e-09
t12 6.923732227e-10 -3.181782321e-10 -4.927355026e-10
t13 6.082732227e-10 -2.723782321e-10 -4.918355026e-10
t13 7.109732227e-10 -3.321782321e-10 -5.856355026e-10
t12 -7.764137486e-10 2.230217679e-10 1.451664497e-09
t13 -6.941137486e-10 2.663217679e-10 1.474264497e-09
t13 -8.403137486e-10 2.595217679e-10 1.512764497e-09
t12 -2.380137486e-10 7.882087393e-10 -1.265822474e-09
t13 -3.254137486e-10 8.161087393e-10 -1.238322474e-09
t13 -2.337137486e-10 6.956087393e-10 -1.241922474e-09
t12 2.467862514e-10 -8.216782321e-10 -6.981224739e-10
t13 3.076862514e-10 -7.487782321e-10 -7.096224739e-10
t13 3.028862514e-10 -8.987782321e-10 -6.898224739e-10
t12 -2.745137486e-10 -3.896782321e-10 6.406449743e-11
t13 -1.883137486e-10 -4.295782321e-10 7.596449743e-11
t13 -2.714137486e-10 -3.512782321e-10 -2.353550257e-11
t12 3.019862514e-10 1.268108739e-09 -1.427822474e-09
t13 2.630862514e-10 1.238608739e-09 -1.510122474e-09
t13 2.687862514e-10 1.206808739e-09 -1.362222474e-09
t12 9.258732227e-10 -4.082782321e-10 -1.270222474e-09
t13 9.652732227e-10 -3.536782321e-10 -1.202222474e-09
t13 8.452732227e-10 -4.414782321e-10 -1.230622474e-09
t12 -1.772137486e-10 3.570217679e-10 -6.432224739e-10
t13 -1.410137486e-10 2.725217679e-10 -6.698224739e-10
t13 -1.156137486e-10 3.900217679e-10 -5.778224739e-10
t12 -4.022137486e-10 6.818087393e-10 -5.442355026e-10
t13 -3.489137486e-10 6.541087393e-10 -4.697355026e-10
t13 -3.386137486e-10 7.032087393e-10 -6.125355026e-10
t12 6.283732227e-10 8.657087393e-10 1.417764497e-09
t13 6.255732227e-10 9.316087393e-10 1.348364497e-09
t13 5.611732227e-10 8.021087393e-10 1.393264497e-09
t12 -1.031013749e-09 4.917217679e-10 1.312764497e-09
t13 -1.124713749e-09 4.830217679e-10 1.295064497e-09
t13 -1.020213749e-09 4.582217679e-10 1.401764497e-09
t12 -5.952137486e-10 -1.347823207e-11 -1.281622474e-09
t13 -6.255137486e-10 7.642176793e-11 -1.269022474e-09
t13 -6.499137486e-10 -6.567823207e-11 -1.222922474e-09
t12 5.088732227e-10 1.243208739e-09 -4.557355026e-10
t13 5.417732227e-10 1.288608739e-09 -5.333355026e-10
t13 5.832732227e-10 1.241308739e-09 -3.956355026e-10
t12 8.782732227e-10 1.519217679e-10 -1.004622474e-09
t13 7.847732227e-10 1.685217679e-10 -9.929224739e-10
t13 8.920732227e-10 6.482176793e-11 -9.672224739e-10
t12 1.422073223e-09 1.890217679e-10 -1.405122474e-09
t13 1.504773223e-09 1.419217679e-10 -1.394622474e-09
t13 1.448073223e-09 2.802217679e-10 -1.418722474e-09
t12 -1.322413749e-09 4.904217679e-10 1.264164497e-09
t13 -1.291713749e-09 4.315217679e-10 1.195264497e-09
t13 -1.399313749e-09 5.332217679e-10 1.226564497e-09
t14 -1.164413749e-09 3.258217679e-10 -6.566224739e-10
t14 -6.936137486e-10 -7.338782321e-10 -2.000355026e-10
t14 -1.372213749e-09 -2.293782321e-10 -1.149322474e-09
t14 2.058625142e-11 1.179408739e-09 -1.008122474e-09
t15 1.070862514e-10 3.701217679e-10 -7.662224739e-10
t15 -1.166713749e-09 1.401108739e-09 -1.073550257e-11
